         200
0 1
C       -8.3276300000         2.1429220000         2.4474800000 
C       -8.9194950000         1.1319180000         3.4097440000 
C       -8.8680080000        -2.3382850000        -1.1722860000 
C       -8.3286120000        -3.2415960000        -0.2535050000 
C       -8.9205740000        -3.4075020000         1.1320330000 
C       -8.3280870000        -2.4457010000         2.1430530000 
C       -8.8676240000        -1.1724180000         2.3405100000 
C       -8.3275680000        -0.2536050000         3.2434340000 
C       -8.8679210000         2.3403870000         1.1744660000 
C       -8.9204510000         3.4097520000        -1.1300850000 
C       -8.3284170000         2.4479240000        -2.1413540000 
C       -8.8683020000         1.1746440000        -2.3382750000 
C       -8.3287240000         0.2554850000        -3.2410660000 
C       -8.3285630000        -2.1413880000        -2.4457220000 
C       -8.9207640000        -1.1299900000        -3.4072960000 
C       -7.2069660000        -0.6582950000         3.9774240000 
C       -7.2066600000        -2.7919340000         2.9049600000 
C       -6.6389920000        -1.9188970000         3.8266930000 
C       -7.2071930000         3.9769180000         0.6593610000 
C       -7.2059490000         2.9047100000         2.7930440000 
C       -6.6385430000         3.8263020000         1.9196160000 
C       -7.2086390000        -3.9765050000        -0.6582780000 
C       -7.2079070000        -2.9043020000        -2.7921380000 
C       -6.6408300000        -3.8263970000        -1.9190060000 
C       -7.2081630000         0.6597000000        -3.9754060000 
C       -7.2073620000         2.7938450000        -2.9039140000 
C       -6.6400850000         1.9202940000        -3.8255350000 
H       -5.7753820000        -4.4186900000        -2.2166770000 
H       -9.7535010000        -1.7645290000        -0.8840800000 
H       -8.7579580000        -4.4368640000         1.4736000000 
H      -10.0030360000        -3.2308120000         1.0735310000 
H       -9.7536340000        -0.8842720000         1.7675280000 
H       -5.7729360000        -2.2163470000         4.4182160000 
H       -5.7721850000         4.4175940000         2.2166090000 
H       -9.7541720000         1.7675000000         0.8868610000 
H       -9.7541790000         0.8868960000        -1.7648800000 
H       -5.7742400000         2.2175560000        -4.4174380000 
H      -10.0032440000        -1.0714720000        -3.2307230000 
H       -8.7580390000        -1.4713180000        -4.4367270000 
H      -10.0029730000         3.2334800000        -1.0715000000 
H       -8.7574470000         4.4391160000        -1.4714820000 
H       -8.7561840000         1.4734900000         4.4390040000 
H      -10.0020720000         1.0734110000         3.2337720000 
O       -6.6869720000         2.7541940000         4.0695920000 
O       -6.6880690000         0.2253250000         4.9116480000 
O       -6.6887170000         4.0707300000        -2.7547100000 
O       -6.6886560000         4.9105210000        -0.2250270000 
O       -6.6896800000        -0.2248720000        -4.9089590000 
O       -6.6895380000        -2.7548120000        -4.0691220000 
O       -6.6883040000        -4.0687770000         2.7545330000 
O       -6.6902170000        -4.9109370000         0.2254590000 
C       -5.4903230000         0.7874680000         4.6467390000 
C       -5.4898580000         2.1444290000         4.1936510000 
N       -4.3839640000         2.7918260000         3.9073140000 
N       -4.3849790000         0.0970480000         4.8073140000 
C       -3.2742330000         2.0844750000         4.0947220000 
C       -3.2745540000         0.7741750000         4.5326620000 
C       -1.8438130000         2.5067480000         3.8601710000 
C       -1.8440950000         0.2952450000         4.5994270000 
N       -1.0841600000         1.3975280000         4.2191600000 
O       -1.4481830000         3.5518840000         3.4289200000 
O       -1.4477050000        -0.7985610000         4.8843590000 
C       -5.4911670000         4.6461150000        -0.7878260000 
C       -5.4913310000         4.1951860000        -2.1455230000 
C       -8.3282240000         3.2431900000         0.2553310000 
N       -4.3857430000         3.9109190000        -2.7942870000 
N       -4.3854540000         4.8052820000        -0.0976160000 
C       -5.4922330000        -2.1453660000        -4.1934380000 
C       -5.4921840000        -0.7875930000        -4.6442050000 
C       -5.4913890000        -4.1936030000         2.1445370000 
C       -5.4923080000        -4.6468240000         0.7875690000 
N       -4.3864900000        -0.0972120000        -4.8030040000 
N       -4.3865300000        -2.7939600000        -3.9090530000 
N       -4.3851970000        -3.9077210000         2.7917100000 
N       -4.3871230000        -4.8079760000         0.0970420000 
C       -3.2753620000         4.5321860000        -0.7759840000 
C       -3.2764540000        -4.5338240000         0.7739610000 
C       -3.2756310000         4.0974360000        -2.0873660000 
C       -3.2764670000        -2.0868940000        -4.0953640000 
C       -3.2763430000        -0.7754550000        -4.5299070000 
C       -3.2756300000        -4.0956790000         2.0842080000 
C       -1.8449440000        -3.8618680000         2.5061760000 
C       -1.8461450000        -4.6015100000         0.2948390000 
C       -1.8446280000         4.5985810000        -0.2977700000 
C       -1.8452580000         3.8661100000        -2.5115700000 
C       -1.8460290000        -2.5107200000        -3.8633420000 
C       -1.8456970000        -0.2969290000        -4.5956990000 
N       -1.0857180000        -4.2211290000         1.3966550000 
N       -1.0860540000        -1.4006600000        -4.2194430000 
N       -1.0851480000         4.2217760000        -1.4015750000 
O       -1.4501160000        -4.8870890000        -0.7989420000 
O       -1.4488070000        -3.4310810000         3.5513990000 
O       -1.4503610000        -3.5574600000        -3.4359580000 
O       -1.4491540000         0.7979760000        -4.8763110000 
O       -1.4480500000         4.8787230000         0.7972100000 
O       -1.4493260000         3.4394140000        -3.5584910000 
H       10.0020370000         1.5272920000        -3.0432320000 
C        8.9195630000         1.6109940000        -3.2094090000 
C        8.3270110000         0.2161060000        -3.2442550000 
C        8.3279390000         2.4733410000        -2.1121570000 
H        8.7568970000         2.0972370000        -4.1788240000 
C        8.8671600000        -0.8241930000        -2.4845110000 
C        7.2056170000        -0.0776210000        -4.0279470000 
C        8.8678960000         2.4839270000        -0.8240030000 
C        7.2077800000         3.2792420000        -2.3447620000 
C        8.3273920000        -2.1124100000        -2.4739250000 
H        9.7540950000        -0.6233590000        -1.8768340000 
C        6.6382070000        -1.3467820000        -4.0632240000 
O        6.6871640000         0.9325490000        -4.8233280000 
C        8.3286050000         3.2444660000         0.2162030000 
H        9.7542600000         1.8754390000        -0.6230770000 
C        6.6402740000         4.0642640000        -1.3467090000 
O        6.6889120000         3.3158010000        -3.6301180000 
C        8.9195860000        -3.2096590000        -1.6119750000 
C        7.2067570000        -2.3450510000        -3.2791550000 
H        5.7718060000        -1.5543160000        -4.6915220000 
C        5.4901480000         1.4515730000        -4.4798840000 
C        8.9211240000         3.2087890000         1.6111390000 
C        7.2079290000         4.0291690000        -0.0776300000 
H        5.7743590000         4.6931990000        -1.5543210000 
C        5.4910370000         2.7312850000        -3.8403020000 
H       10.0020340000        -3.0431910000        -1.5285100000 
H        8.7570440000        -4.1790960000        -2.0982190000 
C        8.3272830000        -3.2446220000        -0.2170000000 
O        6.6886180000        -3.6306250000        -3.3160070000 
N        4.3842920000         0.7906880000        -4.7336110000 
C        8.3288120000         2.1113410000         2.4726850000 
H        8.7587860000         4.1779560000         2.0979840000 
H       10.0035380000         3.0421840000         1.5274650000 
O        6.6900510000         4.8255930000         0.9319040000 
N        4.3858310000         3.3329760000        -3.4651910000 
C        8.8673650000        -2.4846140000         0.8231380000 
C        7.2061350000        -4.0285790000         0.0769390000 
C        5.4909300000        -3.8422470000        -2.7316800000 
C        3.2746790000         1.4232640000        -4.3654510000 
C        8.8686740000         0.8231670000         2.4835850000 
C        7.2079020000         2.3440420000         3.2774870000 
C        5.4925310000         4.4832280000         1.4505980000 
C        3.2752940000         2.6597900000        -3.7491590000 
C        8.3278810000        -2.4740450000         2.1114890000 
H        9.7541330000        -1.8767570000         0.6220940000 
C        6.6389370000        -4.0637620000         1.3462050000 
O        6.6878990000        -4.8244270000        -0.9329840000 
C        5.4905720000        -4.4819290000        -1.4520180000 
N        4.3854220000        -3.4685940000        -3.3337030000 
C        1.8441200000         0.9586090000        -4.4969650000 
C        8.3283960000        -0.2169840000         3.2434680000 
H        9.7557400000         0.6222630000         1.8761220000 
C        6.6393550000         1.3460040000         4.0618620000 
O        6.6899720000         3.6297220000         3.3138270000 
C        5.4925120000         3.8416230000         2.7292880000 
N        4.3870000000         4.7401200000         0.7904200000 
C        1.8450370000         3.0458190000        -3.4572800000 
C        8.9204280000        -1.6120830000         3.2085460000 
C        7.2074180000        -3.2794270000         2.3443660000 
H        5.7727680000        -4.6922880000         1.5540000000 
N        4.3848790000        -4.7369990000        -0.7913540000 
C        3.2751040000        -3.7537460000        -2.6606970000 
N        1.0847990000         1.9970120000        -3.9662570000 
O        1.4481120000        -0.0860980000        -4.9288880000 
C        7.2069720000         0.0768750000         4.0271010000 
H        5.7729220000         1.5536830000         4.6900540000 
N        4.3868760000         3.4669060000         3.3303580000 
C        3.2769240000         4.3723120000         1.4223730000 
O        1.4489960000         4.0203060000        -2.8842580000 
H        8.7579600000        -2.0983430000         4.1779870000 
H       10.0028660000        -1.5289060000         3.0418460000 
O        6.6893780000        -3.3165070000         3.6300020000 
C        3.2749770000        -4.3699230000        -1.4241040000 
C        1.8445910000        -3.4636530000        -3.0471080000 
O        6.6890700000        -0.9331310000         4.8229950000 
C        3.2767890000         3.7534430000         2.6576110000 
C        1.8464140000         4.5073710000         0.9584340000 
C        5.4918160000        -2.7319450000         3.8416040000 
C        1.8444500000        -4.5028610000        -0.9596890000 
N        1.0846820000        -3.9737750000        -1.9986090000 
O        1.4479960000        -2.8932570000        -4.0228630000 
C        5.4916380000        -1.4520990000         4.4809620000 
C        1.8461930000         3.4624530000         3.0429840000 
N        1.0865430000         3.9750650000         1.9956130000 
O        1.4505940000         4.9441660000        -0.0842270000 
N        4.3861860000        -3.3338700000         3.4682030000 
O        1.4486670000        -4.9360820000         0.0845770000 
N        4.3860460000        -0.7910760000         4.7356750000 
O        1.4495080000         2.8888290000         4.0168500000 
C        3.2760280000        -2.6605060000         3.7530100000 
C        3.2760520000        -1.4236470000         4.3686420000 
C        1.8455060000        -3.0466910000         3.4629690000 
C        1.8456580000        -0.9584300000         4.5002870000 
N        1.0857780000        -1.9972110000         3.9710760000 
O        1.4487630000        -4.0222920000         2.8923890000 
O        1.4502210000         0.0863820000         4.9324630000 
H        0.0642440000         4.0403840000         2.0293970000 
H       -0.0628490000         4.2918880000        -1.4251780000 
H       -0.0619240000         1.4203750000         4.2898530000 
H        0.0625210000         2.0309870000        -4.0315350000 
H        0.0634280000        -2.0311690000         4.0357270000 
H       -0.0637770000        -1.4236270000        -4.2899400000 
H       -0.0634860000        -4.2923400000         1.4187940000 
H        0.0624310000        -4.0401370000        -2.0326060000 
