         100
0 1
H       -1.2618060000        -3.1621970000        -4.9001290000 
C       -1.3305790000        -3.3351640000        -3.8176670000 
C        0.0623350000        -3.2501650000        -3.2255410000 
C       -2.2838120000        -2.3161670000        -3.2255390000 
H       -1.7316910000        -4.3427990000        -3.6550710000 
C        1.0333470000        -2.4037530000        -3.7658330000 
C        0.4226580000        -4.0059460000        -2.1044100000 
C       -2.4051940000        -1.0335790000        -3.7652050000 
C       -3.0663950000        -2.6173660000        -2.1051900000 
C        2.3160640000        -2.2826430000        -3.2264490000 
H        0.7807690000        -1.8154010000        -4.6525720000 
C        1.6903380000        -3.9321720000        -1.5373890000 
O       -0.5152820000        -4.8852700000        -1.5858320000 
C       -3.2521120000        -0.0626610000        -3.2254540000 
H       -1.8164990000        -0.7809470000        -4.6517070000 
C       -3.9340750000        -1.6905540000        -1.5372260000 
O       -2.9922310000        -3.9012130000        -1.5865980000 
C        3.3350190000        -1.3295010000        -3.8187800000 
C        2.6173780000        -3.0651310000        -2.1060640000 
H        1.9513570000        -4.5404890000        -0.6711910000 
C       -1.0615110000        -4.5879200000        -0.3885830000 
C       -3.3365920000         1.3302990000        -3.8176730000 
C       -4.0083150000        -0.4230410000        -2.1046080000 
H       -4.5425740000        -1.9516000000        -0.6711690000 
C       -2.3914380000        -4.0606400000        -0.3889460000 
H        3.1616520000        -1.2604320000        -4.9011590000 
H        4.3426970000        -1.7306960000        -3.6566370000 
C        3.2502020000         0.0632050000        -3.2261760000 
O        3.9015300000        -2.9915070000        -1.5883190000 
N       -0.3809210000        -4.7841510000         0.7170180000 
C       -2.3170270000         2.2828240000        -3.2254980000 
H       -4.3439490000         1.7320530000        -3.6549350000 
H       -3.1637590000         1.2614600000        -4.9001550000 
O       -4.8883570000         0.5142400000        -1.5862660000 
N       -3.0227780000        -3.7388240000         0.7165250000 
C        2.4034750000         1.0343120000        -3.7657980000 
C        4.0063650000         0.4231850000        -2.1051980000 
C        4.0625520000        -2.3913950000        -0.3905640000 
C       -1.0424330000        -4.4719130000         1.8269030000 
C       -1.0347240000         2.4044550000        -3.7657440000 
C       -2.6176510000         3.0644390000        -2.1043380000 
C       -4.5914370000         1.0601930000        -0.3887330000 
C       -2.3273320000        -3.9641280000         1.8267960000 
C        2.2824370000         2.3168860000        -3.2260240000 
H        1.8148540000         0.7819660000        -4.6524280000 
C        3.9325580000         1.6906700000        -1.5377270000 
O        4.8861970000        -0.5147360000        -1.5874260000 
C        4.5899350000        -1.0615100000        -0.3901120000 
N        3.7423510000        -3.0235100000         0.7149220000 
C       -0.5677420000        -4.5633050000         3.2572930000 
C       -0.0635270000         3.2507800000        -3.2256090000 
H       -0.7826590000         1.8166710000        -4.6530060000 
C       -1.6905060000         3.9315420000        -1.5359160000 
O       -3.9015350000         2.9900920000        -1.5860150000 
C       -4.0620540000         2.3892750000        -0.3886210000 
N       -4.7903130000         0.3801690000         0.7167280000 
C       -2.7365540000        -3.7067720000         3.2572340000 
C        1.3292260000         3.3359540000        -3.8180670000 
C        3.0651910000         2.6178710000        -2.1057500000 
H        4.5411850000         1.9515220000        -0.6717010000 
N        4.7876570000        -0.3815930000         0.7156510000 
C        3.9689850000        -2.3287130000         1.8253040000 
N       -1.6476570000        -4.1239150000         4.0170440000 
O        0.5103340000        -4.9039590000         3.6528910000 
C       -0.4232630000         4.0060500000        -2.1039220000 
H       -1.9511080000         4.5394000000        -0.6692810000 
N       -3.7400080000         3.0200970000         0.7170360000 
C       -4.4778010000         1.0411650000         1.8268340000 
O       -3.7565400000        -3.2196630000         3.6536950000 
H        1.7304570000         4.3435530000        -3.6555290000 
H        1.2603330000         3.1629370000        -4.9005170000 
O        2.9918520000         3.9018380000        -1.5874350000 
C        4.4766500000        -1.0437570000         1.8255220000 
C        3.7136150000        -2.7388980000         3.2558180000 
O        0.5148000000         4.8856680000        -1.5861450000 
C       -3.9673380000         2.3250030000         1.8270590000 
C       -4.5720500000         0.5670580000         3.2572810000 
C        2.3916540000         4.0622030000        -0.3896500000 
C        4.5696550000        -0.5699190000         3.2561130000 
N        4.1320180000        -1.6506010000         4.0158080000 
O        3.2292800000        -3.7601250000         3.6523660000 
C        1.0616140000         4.5892480000        -0.3889450000 
C       -3.7100750000         2.7336680000         3.2576530000 
N       -4.1305720000         1.6459830000         4.0172240000 
O       -4.9175310000        -0.5093510000         3.6529990000 
N        3.0237840000         3.7416760000         0.7157160000 
O        4.9116890000         0.5076260000         3.6519990000 
N        0.3815040000         4.7860150000         0.7169020000 
O       -3.2221090000         3.7531350000         3.6543840000 
C        2.3287950000         3.9673640000         1.8261390000 
C        1.0436210000         4.4744640000         1.8266240000 
C        2.7389250000         3.7112910000         3.2564810000 
C        0.5692700000         4.5653750000         3.2571870000 
N        1.6499160000         4.1272110000         4.0166370000 
O        3.7600630000         3.2265550000         3.6528040000 
O       -0.5086820000         4.9061170000         3.6530340000 
H       -4.1982270000         1.6738290000         5.0395500000 
H       -1.6755730000        -4.1920720000         5.0393170000 
H        1.6785190000         4.1943390000         5.0389910000 
H        4.2013810000        -1.6789720000         5.0380310000 
