         148
0 1
O       -3.7604210000        -1.3201790000        -2.1394240000 
O       -4.8845910000         2.1965780000         1.0449340000 
N       -2.4234880000        -3.2453520000        -0.7188680000 
H       -2.1772640000        -3.0899680000        -1.6972430000 
N       -4.6509300000        -0.5613100000        -0.1979790000 
C       -3.7858460000        -2.8898860000        -0.3793280000 
H       -3.8790050000        -2.9294750000         0.7103970000 
C       -4.0585470000        -1.5058830000        -0.9629190000 
C       -4.7427810000        -3.9030750000        -1.0528760000 
H       -4.4109240000        -3.9820270000        -2.0991060000 
H       -4.5741230000        -4.8736120000        -0.5626050000 
C       -6.1964230000        -3.5180300000        -0.9998960000 
C       -6.9647240000        -3.7400000000         0.1494750000 
C       -8.3020950000        -3.3495480000         0.1987750000 
C       -8.8945350000        -2.7421670000        -0.9087060000 
C       -8.1417640000        -2.5255960000        -2.0623940000 
C       -6.7994740000        -2.9025690000        -2.1033430000 
H       -6.5068670000        -4.2329060000         1.0115980000 
H       -8.8882740000        -3.5300430000         1.1012950000 
H       -9.9440670000        -2.4463980000        -0.8752280000 
H       -8.6047430000        -2.0607300000        -2.9351470000 
H       -6.1966330000        -2.7228600000        -2.9991710000 
C       -5.0339600000         0.7004720000        -0.8424330000 
H       -4.5702050000         0.6902430000        -1.8328180000 
C       -4.4841500000         1.9055170000        -0.0704400000 
C       -6.5493780000         0.8181400000        -0.9771680000 
H       -6.8024130000         1.7122500000        -1.5644030000 
H       -7.0296530000         0.9142330000         0.0064800000 
H       -6.9515360000        -0.0664610000        -1.4905890000 
C       -3.9008570000        -0.7739280000         2.1777730000 
H       -4.2155520000        -0.8324650000         3.2246740000 
C       -2.6039370000        -0.7264470000         1.8868170000 
H       -2.2375570000        -0.6717800000         0.8573120000 
H       -1.8580770000        -0.7508350000         2.6819600000 
O        1.7032360000        -4.1730220000        -2.0682750000 
O       -2.2494990000        -4.7425100000         0.9723100000 
N        3.5634340000        -2.6382590000        -0.7377940000 
H        3.3490430000        -2.4358330000        -1.7186090000 
N        0.6573720000        -4.5223640000        -0.0885120000 
C        3.0528330000        -3.8520870000        -0.1402250000 
H        2.9240030000        -3.6531940000         0.9298010000 
C        1.7324900000        -4.1933870000        -0.8387100000 
C        4.0548740000        -5.0177400000        -0.3081760000 
H        4.1661960000        -5.2257960000        -1.3834650000 
H        5.0193930000        -4.6610160000         0.0800910000 
C        3.6061820000        -6.2471220000         0.4336350000 
C        3.9541270000        -6.4308270000         1.7773040000 
C        3.4463510000        -7.5085340000         2.5012030000 
C        2.5795290000        -8.4155890000         1.8904980000 
C        2.2343290000        -8.2467210000         0.5496510000 
C        2.7489400000        -7.1712250000        -0.1732080000 
H        4.6210300000        -5.7098960000         2.2572410000 
H        3.7259400000        -7.6400490000         3.5477210000 
H        2.1781880000        -9.2566890000         2.4575950000 
H        1.5617270000        -8.9561290000         0.0642360000 
H        2.4807850000        -7.0336070000        -1.2244650000 
C       -0.5927910000        -4.8485160000        -0.7823830000 
H       -0.5315980000        -4.3953710000        -1.7770840000 
C       -1.8225710000        -4.2685410000        -0.0652790000 
C       -0.7805120000        -6.3553170000        -0.9265330000 
H       -1.7174340000        -6.5624080000        -1.4644600000 
H       -0.8390390000        -6.8319330000         0.0622050000 
H        0.0563480000        -6.7861620000        -1.4920920000 
C        0.5577070000        -3.2819030000         2.0550910000 
H        0.4935170000        -3.3316370000         3.1465640000 
C        0.5354560000        -2.0988740000         1.4446570000 
H        0.5928220000        -2.0073340000         0.3564140000 
H        0.4621340000        -1.1746980000         2.0180230000 
O       -1.7025740000         4.1727310000        -2.0692810000 
O        2.2492060000         4.7426300000         0.9724620000 
N       -3.5632000000         2.6381500000        -0.7391970000 
H       -3.3484980000         2.4355950000        -1.7199180000 
N       -0.6573430000         4.5223600000        -0.0892340000 
C       -3.0527800000         3.8520480000        -0.1416170000 
H       -2.9242860000         3.6532850000         0.9284740000 
C       -1.7322170000         4.1932620000        -0.8397290000 
C       -4.0547660000         5.0176820000        -0.3100260000 
H       -4.1657420000         5.2256130000        -1.3853740000 
H       -5.0194110000         4.6610030000         0.0779700000 
C       -3.6063210000         6.2471520000         0.4317890000 
C       -3.9546870000         6.4309980000         1.7753300000 
C       -3.4471540000         7.5087940000         2.4992670000 
C       -2.5801580000         8.4157970000         1.8887320000 
C       -2.2345400000         8.2467880000         0.5480110000 
C       -2.7489090000         7.1712040000        -0.1748900000 
H       -4.6217270000         5.7101080000         2.2551380000 
H       -3.7270710000         7.6404200000         3.5456840000 
H       -2.1790070000         9.2569650000         2.4558610000 
H       -1.5618000000         8.9561550000         0.0627260000 
H       -2.4804290000         7.0334770000        -1.2260500000 
C        0.5930360000         4.8484480000        -0.7827470000 
H        0.5321550000         4.3952090000        -1.7774240000 
C        1.8225930000         4.2685430000        -0.0652030000 
C        0.7807970000         6.3552380000        -0.9269780000 
H        1.7178930000         6.5622840000        -1.4646170000 
H        0.8389970000         6.8319490000         0.0617340000 
H       -0.0558820000         6.7860230000        -1.4928510000 
C       -0.5583330000         3.2821560000         2.0545470000 
H       -0.4945060000         3.3320190000         3.1460360000 
C       -0.5358440000         2.0990550000         1.4442610000 
H       -0.5928430000         2.0073830000         0.3560100000 
H       -0.4626850000         1.1749490000         2.0177610000 
O        3.7610260000         1.3199130000        -2.1384130000 
O        4.8842510000        -2.1964380000         1.0467000000 
N        2.4236970000         3.2452710000        -0.7184900000 
H        2.1777700000         3.0897830000        -1.6969230000 
N        4.6509940000         0.5612840000        -0.1966260000 
C        3.7859500000         2.8898340000        -0.3784980000 
H        3.8787830000         2.9295510000         0.7112500000 
C        4.0588210000         1.5057630000        -0.9618470000 
C        4.7430900000         3.9029450000        -1.0518760000 
H        4.4115460000         3.9817740000        -2.0982150000 
H        4.5742830000         4.8735380000        -0.5617690000 
C        6.1967190000         3.5179170000        -0.9984200000 
C        6.9646990000         3.7400940000         0.1511240000 
C        8.3020660000         3.3496760000         0.2008570000 
C        8.8948200000         2.7421170000        -0.9063590000 
C        8.1423690000         2.5253350000        -2.0602150000 
C        6.8000830000         2.9022760000        -2.1015970000 
H        6.5065980000         4.2331380000         1.0130370000 
H        8.8879930000         3.5303370000         1.1035070000 
H        9.9443500000         2.4463750000        -0.8725440000 
H        8.6055970000         2.0603300000        -2.9327620000 
H        6.1974920000         2.7224060000        -2.9975620000 
C        5.0341970000        -0.7005780000        -0.8408190000 
H        4.5707200000        -0.6904630000        -1.8313340000 
C        4.4841600000        -1.9055280000        -0.0688380000 
C        6.5496510000        -0.8182780000        -0.9751200000 
H        6.8028380000        -1.7124550000        -1.5621890000 
H        7.0296540000        -0.9142670000         0.0086710000 
H        6.9519630000         0.0662600000        -1.4885280000 
C        3.9002730000         0.7741770000         2.1788960000 
H        4.2146840000         0.8328170000         3.2258780000 
C        2.6034310000         0.7266710000         1.8875940000 
H        2.2373290000         0.6719040000         0.8579950000 
H        1.8573570000         0.7511360000         2.6825340000 
C        0.6868850000        -4.6133810000         1.3668620000 
H        1.6014340000        -5.1298110000         1.6960870000 
H       -0.1524070000        -5.2529820000         1.6719450000 
C       -5.0360740000        -0.7764900000         1.1929200000 
H       -5.6134590000        -1.7114140000         1.2848140000 
H       -5.7175460000         0.0389780000         1.4659220000 
C       -0.6873110000         4.6135490000         1.3661190000 
H       -1.6019680000         5.1300120000         1.6949970000 
H        0.1518810000         5.2531930000         1.6713870000 
C        5.0357570000         0.7766380000         1.1943510000 
H        5.6131060000         1.7115830000         1.2862880000 
H        5.7171660000        -0.0387870000         1.4676370000 
