         328
0 1
O       -5.8065500000         1.3009310000         2.3953500000 
O       -5.7369200000        -2.0923090000         6.3072400000 
O       -7.7934590000         4.5266920000         1.0573000000 
O       -8.2614490000         2.2329220000         2.2462800000 
O       -9.8600990000         4.2756220000         2.6636200000 
O       -7.6724800000        -0.1044390000         1.1890800000 
O       -7.7260900000         0.1799710000         3.7987900000 
O       -7.5536810000        -3.3004790000         4.8400000000 
O       -8.1424900000        -1.0541280000         6.0799700000 
O       -9.8594400000         0.7489020000         5.2264800000 
Si       -8.3330490000         3.8331420000         2.4057400000 
Si       -7.3661200000         0.9045610000         2.4075000000 
Si       -7.3065300000        -2.4273990000         6.1694200000 
Si       -8.3043100000         0.3405020000         5.2936500000 
O       -5.6803400000         2.1757610000         7.8499700000 
O       -7.4813300000         1.4935210000         6.0613800000 
O       -7.4905690000         6.0289810000        -3.6678100000 
O       -5.8204990000         3.4718010000         5.5663400000 
O       -5.8327690000         6.5646610000        -5.6380100000 
O       -4.9439800000         0.9911510000         5.6210300000 
O       -4.9512790000         6.4528010000        -3.1610400000 
O       -7.4211590000         4.2918110000         3.6501100000 
O       -5.6519990000         5.9425310000         4.6791600000 
O       -5.7393390000         5.6995410000        -0.0920200000 
O       -7.7278880000         8.2621710000        -2.3035600000 
O       -7.5505390000         7.1431610000         1.1524100000 
O       -8.1465490000         5.9548620000        -1.1198300000 
O       -9.8653990000         6.8519120000        -2.8997500000 
Si       -5.9805500000         2.0340110000         6.2742100000 
Si       -5.9913490000         5.8252010000        -4.2160500000 
Si       -5.9379290000         4.4144410000         4.2660800000 
Si       -7.3079690000         5.8330610000         0.2493500000 
Si       -8.3095790000         6.7724620000        -2.4962100000 
O       -3.5476090000         4.8072810000         1.0517800000 
O       -3.4618290000         2.2644310000         1.7185300000 
O       -2.2288490000         4.0511900000         3.2001800000 
O       -4.8580790000         3.9503210000         3.1645000000 
O       -4.1713200000        -0.1501890000         0.9307000000 
O       -3.6189600000         0.3015010000         3.4582900000 
O       -4.1985710000        -3.4042590000         4.6258000000 
O       -3.3842600000        -1.1222190000         5.6515300000 
O       -2.3325400000         1.2851800000         5.5266600000 
O        9.8778710000         4.2606080000         2.6378700000 
O        9.8785400000         0.7338780000         5.2007300000 
Si       -3.5230990000         3.7713210000         2.2853900000 
Si       -4.2656400000         0.9281810000         2.1225500000 
Si       -4.2158900000        -2.4719790000         5.9383100000 
Si       -3.5694300000         0.3653810000         5.0666100000 
O        3.5638590000        -3.2656410000         7.1598800000 
O       -3.5457610000        -3.2602290000         7.1691600000 
O        3.5620110000         4.8018690000         1.0425000000 
O        3.4741010000         2.2591490000         1.7094800000 
O        2.2477210000         4.0477790000         3.1943400000 
O        4.8766910000         3.9429090000         3.1518000000 
O        5.7084700000         2.1670990000         7.8351100000 
O        4.1777200000        -0.1565610000         0.9198700000 
O        5.8191200000         1.2920790000         2.3801800000 
O        3.6314120000         8.5913590000        -2.4355300000 
O       -3.6203180000         8.5968810000        -2.4260700000 
O        3.6327700000         0.2959890000         3.4488300000 
O        7.4945010000         6.0175780000        -3.6873600000 
O        7.5037500000         1.4821180000         6.0418200000 
O        5.8323810000         6.5557890000        -5.6532300000 
O        5.8446410000         3.4629190000         5.5511200000 
O        4.9571910000         6.4452590000        -3.1739700000 
O        4.9644900000         0.9836090000         5.6081000000 
O        7.4415410000         4.2804980000         3.6307100000 
O        4.2135920000         7.3417190000         1.2429400000 
O       -4.1947880000         7.3481210000         1.2539100000 
O        5.6775910000         5.9339090000         4.6643800000 
O        4.2098090000        -3.4106510000         4.6148300000 
O        3.3986110000         6.3667590000        -1.0610100000 
O       -3.3873090000         6.3719310000        -1.0521600000 
O        3.4016500000        -1.1273810000         5.6426800000 
O        5.7521110000         5.6907990000        -0.1070100000 
O        5.7545300000        -2.1010510000         6.2922500000 
O        2.3455410000         6.5447890000        -3.4644800000 
O       -2.3402490000         6.5483600000        -3.4583600000 
O        2.3532600000         1.2816090000         5.5205500000 
O        7.8074310000         4.5148180000         1.0369500000 
O        8.2750300000         2.2203380000         2.2247100000 
O       -2.1785690000         2.4258800000         7.8941300000 
O        2.2072110000         2.4225500000         7.8884100000 
O        7.6797300000        -0.1161420000         1.1690500000 
O        7.7387820000         8.2503980000        -2.3237400000 
O        7.7405900000         0.1681880000         3.7786100000 
O        0.0121600000         1.8823900000         6.5499000000 
O        0.0010610000         5.5339100000        -4.0831800000 
O       -1.5921390000         3.8018100000         5.7349200000 
O        1.6039410000         6.3923800000        -5.9847500000 
O       -1.6054590000         6.3948300000        -5.9805700000 
O        1.6172510000         3.7993700000         5.7307300000 
O        0.0114010000         5.0915500000         4.0990700000 
O       -2.2962490000         6.1474900000         4.7806600000 
O        7.5687510000         7.1316580000         1.1326800000 
O        2.3224310000         6.1439690000         4.7746300000 
O        7.5656090000        -3.3119820000         4.8202700000 
O        8.1570210000         5.9424580000        -1.1411000000 
O        8.1610800000        -1.0665320000         6.0587000000 
O        9.8725810000         6.8368880000        -2.9255100000 
Si        3.5391510000         3.7659390000         2.2761800000 
Si        4.2770400000         0.9216590000         2.1114100000 
Si        5.9935510000         5.8160790000        -4.2316900000 
Si        6.0043500000         2.0248790000         6.2585700000 
Si        5.9601210000         4.4053890000         4.2505600000 
Si        4.2310910000         6.0503590000         0.2815800000 
Si       -4.2167690000         6.0567910000         0.2926000000 
Si        4.2319600000        -2.4784110000         5.9272900000 
Si        3.5826910000         6.9848490000        -2.5352700000 
Si       -3.5742990000         6.9903010000        -2.5259400000 
Si        3.5875600000         0.3599390000         5.0572700000 
Si        8.3494810000         3.8204480000         2.3839700000 
Si        7.3781300000         0.8933480000         2.3882600000 
Si       -1.5232690000         2.3478300000         6.4232400000 
Si        1.5361810000         5.6717400000        -4.5464600000 
Si       -1.5350490000         5.6740800000        -4.5424500000 
Si        1.5479610000         2.3454900000         6.4192300000 
Si       -1.5259690000         4.7725200000         4.4546400000 
Si        1.5492110000         4.7701800000         4.4506300000 
Si        7.3218210000         5.8219280000         0.2302700000 
Si        7.3232600000        -2.4385320000         6.1503300000 
Si        8.3176910000         6.7598080000        -2.5179100000 
Si        8.3229600000         0.3278480000         5.2719500000 
O       -9.8670900000        -1.4317780000         0.6202600000 
O       -8.2605800000        -2.2926480000         2.5176500000 
O       -9.8649210000        -3.9535980000         3.7739400000 
Si       -8.2999100000        -1.6060380000         1.0674900000 
Si       -8.3274610000        -3.5941280000         3.4597200000 
O       -6.3184300000        -0.7050890000        -4.5146300000 
O       -6.4024910000        -6.2775190000         0.8871100000 
O       -6.4042200000         1.8377510000        -5.1814000000 
O       -7.6286810000        -4.8336290000         2.7090800000 
O       -7.6372000000         0.0509910000        -6.6630500000 
O       -4.9997510000        -4.8724190000         2.6019400000 
O       -5.0079600000         0.1518610000        -6.6273800000 
O       -5.6995910000        -7.0126990000        -1.5459700000 
O       -5.6947390000         4.2523810000        -4.3935700000 
O       -6.3098210000        -4.4842190000        -1.0754000000 
O       -6.2470890000         3.8006810000        -6.9211700000 
O       -7.5005810000        -7.6949490000        -3.3345700000 
O       -5.8397510000        -5.7166790000        -3.8296100000 
O       -4.9632320000        -8.1973290000        -3.7749200000 
O       -7.4404110000        -4.8966590000        -5.7458300000 
O       -5.6712610000        -3.2459390000        -4.7167600000 
O       -6.6509300000        -2.1971590000        -2.4632400000 
O       -7.6854600000        -2.4836290000        -0.1191100000 
Si       -6.3369210000        -5.7445990000         2.4061600000 
Si       -6.3429600000         0.3308510000        -5.7482800000 
Si       -5.6098910000        -5.8222490000        -0.4633400000 
Si       -5.6003890000         3.1740010000        -5.5854200000 
Si       -5.9998010000        -7.1544690000        -3.1217400000 
Si       -5.9571910000        -4.7740290000        -5.1298700000 
Si       -5.6621400000        -1.9478890000        -3.7239600000 
Si       -6.3762210000        -2.8712890000        -0.9905300000 
O       -2.2481110000        -5.1372900000        -6.1957600000 
O       -4.8773310000        -5.2381490000        -6.2314400000 
O       -2.3755500000        -1.9266700000         0.2048300000 
O       -4.0332800000        -2.4624690000         2.1751300000 
O       -5.0409300000        -2.2844390000        -0.3092000000 
O       -2.4349710000        -4.3998100000         2.9488200000 
O       -2.3517920000        -7.9033000000        -3.8692800000 
O        9.8708700000        -1.4467520000         0.5945500000 
O        9.8730590000        -3.9686220000         3.7481900000 
Si       -3.9070100000        -1.7404090000         0.7270400000 
Si       -3.9166410000        -3.7836990000         3.0882700000 
O        6.3099100000        -0.7147110000        -4.5311400000 
O        6.3978300000         1.8280090000        -5.1981100000 
O        6.3995690000        -6.2872710000         0.8704200000 
O        7.6242100000         0.0393780000        -6.6829600000 
O        7.6327190000        -4.8452420000         2.6891700000 
O        2.2284590000        -5.1406910000        -6.2016100000 
O        4.9952400000         0.1442490000        -6.6404300000 
O        5.0034490000        -4.8800410000         2.5888700000 
O        4.8574390000        -5.2455610000        -6.2441400000 
O        5.6940810000         4.2437190000        -4.4084300000 
O        5.6892190000        -7.0213710000        -1.5608500000 
O       -4.0583210000        -5.5841390000        -0.0659200000 
O        4.0528110000         2.7950690000        -5.8688100000 
O       -4.0594990000         2.8012510000        -5.8582200000 
O        4.0538890000        -5.5904310000        -0.0766400000 
O        6.2391510000         3.7911690000        -6.9374600000 
O        6.2404990000        -4.5042110000        -1.0531200000 
O        7.4844890000        -7.7063520000        -3.3541200000 
O        5.8253890000        -5.7255510000        -3.8448300000 
O        4.0392400000        -2.4683010000         2.1647100000 
O        4.9452380000        -8.2048710000        -3.7878400000 
O        4.9148100000        -2.3583310000        -0.3146400000 
O        2.4303700000        -0.1933710000        -7.1193500000 
O       -2.4448900000        -0.1896300000        -7.1129800000 
O        7.4222890000        -4.9079720000        -5.7652300000 
O        2.4402990000        -4.4035110000         2.9424600000 
O        5.6583390000        -3.2545810000        -4.7315500000 
O        6.4733200000        -2.2796010000        -2.4276200000 
O       -4.1267100000        -1.5973890000        -3.3708500000 
O        4.1198900000        -1.6040010000        -3.3816500000 
O        7.5263900000        -2.4576420000        -0.0241500000 
O        2.3340180000        -7.9068510000        -3.8754000000 
O       -2.0676110000        -6.9979700000         3.1249900000 
O        2.0639100000        -0.4278000000        -4.5254100000 
O       -2.0725900000        -0.4245100000        -4.5201800000 
O        2.0694790000        -7.0011200000         3.1195900000 
O       -1.6018210000        -5.7590500000         0.8573400000 
O        1.5969100000         1.8668200000        -5.7133400000 
O       -1.6046000000         1.8692600000        -5.7091600000 
O        1.5997690000        -5.7613300000         0.8530500000 
O        0.0018690000        -5.3906700000         2.9055000000 
O       -0.0059500000        -0.1734200000        -6.1264800000 
O       -2.1978310000        -6.7625900000        -1.5018100000 
O        2.1922010000         4.2033000000        -4.6576800000 
O       -2.1935790000         4.2066400000        -4.6519500000 
O        2.1877790000        -6.7659000000        -1.5072900000 
O       -2.1378110000        -4.1599600000        -1.1593500000 
O        2.1313310000         3.9189700000        -7.2672400000 
O       -2.1399590000         3.9222200000        -7.2616700000 
O       -0.0070910000        -7.3060900000        -2.8460400000 
O       -1.6114010000        -5.3866600000        -3.6610200000 
O        1.5979690000        -5.3890900000        -3.6652000000 
O        8.2679900000        -2.3052220000         2.4961200000 
O       -0.0078510000        -4.0969200000        -5.2968700000 
O       -2.3154910000        -3.0409800000        -4.6152900000 
O        2.3032790000        -3.0442510000        -4.6212600000 
O       -1.7194500000        -1.8528500000        -2.3430600000 
Si        6.3327800000         0.3212090000        -5.7648100000 
Si        6.3387990000        -5.7542310000         2.3896200000 
Si        5.5949910000         3.1654790000        -5.6000300000 
Si        5.5948490000        -5.8539410000        -0.4560200000 
Si        5.9850990000        -7.1635910000        -3.1373700000 
Si        5.9408590000        -4.7830810000        -5.1453800000 
Si        3.9234390000        -3.7897010000         3.0780200000 
Si        5.6408700000        -1.9630410000        -3.7702600000 
Si        6.2892690000        -2.8975910000        -0.9533700000 
Si       -1.5266210000        -5.6355000000         2.4605700000 
Si        1.5228100000         0.2667600000        -5.8727200000 
Si       -1.5330000000         0.2690400000        -5.8686100000 
Si        1.5288290000        -5.6379400000         2.4566000000 
Si       -2.4997010000        -5.5663400000        -0.4651800000 
Si        2.4938010000         3.1938090000        -5.8768900000 
Si       -2.4998990000         3.1976100000        -5.8703700000 
Si       -1.5425210000        -6.8406500000        -2.9727000000 
Si        1.5288090000        -6.8429800000        -2.9767600000 
Si        8.3357500000        -1.5845820000         1.0578300000 
Si       -1.5452210000        -4.4159500000        -4.9413000000 
Si        1.5299590000        -4.4183000000        -4.9453000000 
Si        8.3353390000        -3.6068220000         3.4379700000 
Si       -2.5581500000        -1.7308000000        -3.7121800000 
O        6.3166790000        -7.0077010000         3.3989600000 
O        7.8079090000        -3.2756120000         7.4347900000 
O       -6.3140910000        -6.9980990000         3.4154400000 
O       -7.7891010000        -3.2637380000         7.4551400000 
H       -4.6508220000        -7.8541390000        -4.6152900000 
H       -7.9250510000        -7.1934580000        -4.0345100000 
H       -2.5507510000        -7.5148100000        -4.7243200000 
H        2.5313290000        -7.5186710000        -4.7309500000 
H        4.6311580000        -7.8612110000        -4.6274000000 
H        7.9078990000        -7.2055020000        -4.0551700000 
H        7.5345290000        -4.2551220000        -6.4600500000 
H        4.8138490000        -4.5915910000        -6.9455800000 
H        2.2764090000        -4.5265310000        -6.9378800000 
H       -2.2970410000        -4.5230500000        -6.9319200000 
H       -4.8345810000        -4.5842490000        -6.9329900000 
H       -7.5534710000        -4.2436390000        -6.4403700000 
H        7.6742300000         0.7011180000        -7.3766500000 
H        4.9674500000         0.8194790000        -7.3222600000 
H        2.4277800000         0.4951090000        -7.7883900000 
H       -2.4429800000         0.4988200000        -7.7820300000 
H       -4.9809300000         0.8270510000        -7.3092800000 
H       -7.6880200000         0.7128110000        -7.3566100000 
H        5.7619110000         4.5880690000        -7.1799500000 
H        2.5591510000         4.7776890000        -7.3013200000 
H       -2.5665590000         4.7815900000        -7.2946300000 
H       -5.7692790000         4.5968510000        -7.1649100000 
H        6.0623720000         7.4830890000        -5.5593300000 
H        1.5068720000         7.3408300000        -5.8723500000 
H       -1.5066580000         7.3431200000        -5.8684200000 
H       -6.0610980000         7.4923110000        -5.5435100000 
H        7.8534420000         8.7467280000        -3.1374400000 
H        3.6159420000         8.9674290000        -3.3186700000 
H       -3.6065680000         8.9729210000        -3.3092500000 
H       -7.8439180000         8.7586820000        -3.1169600000 
H       -9.9862480000         7.5200720000        -3.5784000000 
H      -10.0907790000         4.9918120000         2.0674200000 
H       -9.9802400000         1.4425420000         4.5738900000 
H       -9.9382300000        -0.7546880000        -0.0565700000 
H      -10.4384910000        -3.4102080000         3.2286500000 
H        9.9986800000         1.4273380000         4.5478200000 
H       10.4460290000        -3.4261020000         3.2014000000 
H        9.9412400000        -0.7698520000        -0.0825400000 
H       10.1080810000         4.9764380000         2.0410700000 
H        9.9926720000         7.5048680000        -3.6044600000 
H        7.5906720000         7.9088080000         0.5695100000 
H        5.7126810000         6.4889890000         3.8819100000 
H        4.2113220000         8.1388790000         0.7080100000 
H        2.2446610000         6.7392990000         4.0255400000 
H       -2.2195290000         6.7427000000         4.0313700000 
H       -4.1927080000         8.1452710000         0.7189800000 
H       -5.6882890000         6.4976610000         3.8967800000 
H       -7.5727480000         7.9203510000         0.5893000000 
H       -6.1814420000        -7.8078090000         2.9170800000 
H       -2.7820110000        -7.3528100000         2.5908200000 
H        2.7819190000        -7.3570410000         2.5835600000 
H        6.1814980000        -7.8172210000         2.9009500000 
H        8.5983290000        -2.8716620000         7.8003900000 
H        2.7121090000        -2.8736610000         7.3660000000 
H       -2.6928910000        -2.8695400000         7.3730500000 
H       -8.5779410000        -2.8585880000         7.8228000000 
H        5.5174010000         3.0845490000         8.0433500000 
H        2.6175210000         3.2818390000         8.0103700000 
H       -2.5872490000         3.2858000000         8.0171600000 
H       -5.4873290000         3.0929310000         8.0577100000 
Si        3.8461700000        -1.7348410000         0.7381200000 
Si        2.4830490000        -5.4711010000        -0.5228800000 
Si        2.4786900000        -1.7183410000        -3.6201000000 
Si       -1.4758000000        -2.6783400000        -0.9311900000 
O        2.2397800000        -1.7906610000         0.3674300000 
O        2.3540990000        -4.0796110000        -1.3138800000 
O        1.5104700000        -1.5856500000        -2.3500700000 
O       -0.0381710000        -2.7864400000        -0.2220300000 
Al        1.4755600000        -2.6546900000        -1.0153600000 
H        1.5669500000        -1.6580300000         1.1922200000 
C       -0.1799600000         0.4958800000         0.9597900000 
C        0.0707900000        -0.2038400000         2.2847600000 
H       -0.5136100000         1.5188500000         1.1481300000 
H        0.7242200000         0.5272300000         0.3503000000 
H       -0.9694500000        -0.0133300000         0.4007600000 
H        0.8463500000         0.2996200000         2.8651600000 
H       -0.8368600000        -0.2440100000         2.8931500000 
O        0.5481900000        -1.5526200000         2.1049400000 
H       -0.1039500000        -2.0698100000         1.5972900000 
