           9
0 1
C       -0.1799600000         0.4958800000         0.9597900000 
C        0.0707900000        -0.2038400000         2.2847600000 
H       -0.5136100000         1.5188500000         1.1481300000 
H        0.7242200000         0.5272300000         0.3503000000 
H       -0.9694500000        -0.0133300000         0.4007600000 
H        0.8463500000         0.2996200000         2.8651600000 
H       -0.8368600000        -0.2440100000         2.8931500000 
O        0.5481900000        -1.5526200000         2.1049400000 
H       -0.1039500000        -2.0698100000         1.5972900000 
