         319
0 1
O       -5.8057040000         1.3093340000         2.4055830000 
O       -5.7380310000        -2.0661440000         6.3328440000 
O       -7.7913740000         4.5295370000         1.0523930000 
O       -8.2603080000         2.2413130000         2.2516440000 
O       -9.8585010000         4.2863260000         2.6592950000 
O       -7.6717080000        -0.1009810000         1.2052120000 
O       -7.7259200000         0.1952800000         3.8135910000 
O       -7.5547430000        -3.2804580000         4.8706240000 
O       -8.1432550000        -1.0283440000         6.1002370000 
O       -9.8594840000         0.7712680000         5.2381270000 
Si       -8.3315070000         3.8422600000         2.4038240000 
Si       -7.3653870000         0.9134520000         2.4191220000 
Si       -7.3076980000        -2.4014240000         6.1961340000 
Si       -8.3044840000         0.3627490000         5.3075560000 
O       -5.6806730000         2.2088650000         7.8562110000 
O       -7.4813860000         1.5190140000         6.0702630000 
O       -7.4868380000         6.0102930000        -3.6794040000 
O       -5.8198800000         3.4945700000         5.5666880000 
O       -5.8283770000         6.5365730000        -5.6515800000 
O       -4.9440600000         1.0139530000         5.6328600000 
O       -4.9475630000         6.4357080000        -3.1738970000 
O       -7.4198140000         4.3063190000         3.6463390000 
O       -5.6504660000         5.9612040000         4.6683530000 
O       -5.7366300000         5.6965960000        -0.1016980000 
O       -7.7238960000         8.2497140000        -2.3253610000 
O       -7.5477550000         7.1463450000         1.1356960000 
O       -8.1435020000         5.9479130000        -1.1312860000 
O       -9.8616400000         6.8373520000        -2.9157070000 
Si       -5.9805120000         2.0600500000         6.2810310000 
Si       -5.9875310000         5.8036150000        -4.2263220000 
Si       -5.9367110000         4.4313340000         4.2621350000 
Si       -7.3053120000         5.8320950000         0.2386520000 
Si       -8.3059470000         6.7593050000        -2.5114030000 
O       -3.5454450000         4.8089300000         1.0467110000 
O       -3.4605420000         2.2691080000         1.7250120000 
O       -2.2274540000         4.0622310000         3.1988640000 
O       -4.8567020000         3.9619240000         3.1629540000 
O       -4.1704940000        -0.1488660000         0.9479590000 
O       -3.6186680000         0.3141340000         3.4736180000 
O       -4.1996060000        -3.3861320000         4.6577750000 
O       -3.3849320000        -1.0996870000         5.6733550000 
O       -2.3325140000         1.3068330000         5.5378410000 
O        9.8794700000         4.2657650000         2.6387780000 
O        9.8784970000         0.7506980000         5.2176110000 
Si       -3.5215430000         3.7785710000         2.2850140000 
Si       -4.2648260000         0.9349260000         2.1348800000 
Si       -4.2170100000        -2.4479030000         5.9660380000 
Si       -3.5695390000         0.3852960000         5.0816450000 
O        3.5622020000        -3.2381550000         7.1932320000 
O       -3.5474190000        -3.2307450000         7.2006260000 
O        3.5641750000         4.8015210000         1.0393160000 
O        3.4753890000         2.2618770000         1.7178010000 
O        2.2491170000         4.0575620000         3.1942110000 
O        4.8780690000         3.9517770000         3.1528350000 
O        5.7081380000         2.1970020000         7.8443700000 
O        4.1785460000        -0.1575840000         0.9393420000 
O        5.8199660000         1.2972140000         2.3934950000 
O        3.6355290000         8.5751740000        -2.4558500000 
O       -3.6162010000         8.5827340000        -2.4483130000 
O        3.6330630000         0.3065840000         3.4660810000 
O        7.4982330000         5.9946790000        -3.6949810000 
O        7.5036950000         1.5034000000         6.0546760000 
O        5.8367740000         6.5244220000        -5.6637070000 
O        5.8452610000         3.4824100000         5.5545610000 
O        4.9609080000         6.4253820000        -3.1842000000 
O        4.9644110000         1.0036260000         5.6225580000 
O        7.4428870000         4.2908300000         3.6308800000 
O        4.2164050000         7.3420750000         1.2284030000 
O       -4.1919750000         7.3508390000         1.2371430000 
O        5.6791250000         5.9493980000         4.6565770000 
O        4.2087740000        -3.3948870000         4.6490350000 
O        3.4017560000         6.3568970000        -1.0713140000 
O       -3.3841640000         6.3639750000        -1.0642630000 
O        3.4009780000        -1.1067550000         5.6663050000 
O        5.7548200000         5.6846240000        -0.1136410000 
O        5.7534190000        -2.0781160000         6.3209010000 
O        2.3493610000         6.5243120000        -3.4758420000 
O       -2.3364290000         6.5292000000        -3.4709650000 
O        2.3532860000         1.3019450000         5.5329730000 
O        7.8095170000         4.5132800000         1.0361800000 
O        8.2761730000         2.2240830000         2.2344580000 
O       -2.1788450000         2.4582180000         7.9001520000 
O        2.2069350000         2.4536550000         7.8955950000 
O        7.6805020000        -0.1169980000         1.1892530000 
O        7.7427750000         8.2335940000        -2.3414400000 
O        7.7407610000         0.1791510000         3.7975120000 
O        0.0120840000         1.9080330000         6.5589750000 
O        0.0047630000         5.5112810000        -4.0905630000 
O       -1.5914730000         3.8241770000         5.7348760000 
O        1.6083750000         6.3606740000        -5.9955890000 
O       -1.6010250000         6.3640270000        -5.9922600000 
O        1.6179170000         3.8208350000         5.7315370000 
O        0.0128500000         5.1060420000         4.0936120000 
O       -2.2946860000         6.1656980000         4.7698000000 
O        7.5715360000         7.1305930000         1.1199750000 
O        2.3239950000         6.1608790000         4.7649950000 
O        7.5645480000        -3.2962100000         4.8549030000 
O        8.1600690000         5.9309280000        -1.1482330000 
O        8.1603160000        -1.0453290000         6.0832900000 
O        9.8763410000         6.8167820000        -2.9362330000 
Si        3.5407080000         3.7712050000         2.2776770000 
Si        4.2778540000         0.9260030000         2.1260050000 
Si        5.9973690000         5.7911250000        -4.2387840000 
Si        6.0043890000         2.0475500000         6.2685690000 
Si        5.9613400000         4.4189380000         4.2497690000 
Si        4.2337990000         6.0463620000         0.2729160000 
Si       -4.2140620000         6.0551680000         0.2816960000 
Si        4.2308400000        -2.4567080000         5.9572580000 
Si        3.5863910000         6.9682420000        -2.5483140000 
Si       -3.5706000000         6.9757050000        -2.5408820000 
Si        3.5874520000         0.3778430000         5.0742020000 
Si        8.3510240000         3.8248790000         2.3864770000 
Si        7.3788640000         0.8980960000         2.4037920000 
Si       -1.5231840000         2.3733160000         6.4298030000 
Si        1.5400420000         5.6465850000        -4.5540620000 
Si       -1.5311890000         5.6497890000        -4.5508670000 
Si        1.5480460000         2.3701120000         6.4266070000 
Si       -1.5247010000         4.7890510000         4.4502230000 
Si        1.5504790000         4.7858460000         4.4470280000 
Si        7.3244790000         5.8168510000         0.2234510000 
Si        7.3220930000        -2.4166680000         6.1809240000 
Si        8.3213240000         6.7419800000        -2.5286950000 
Si        8.3227870000         0.3454230000         5.2902650000 
O       -9.8665370000        -1.4302830000         0.6418450000 
O       -8.2607590000        -2.2829790000         2.5435410000 
O       -9.8658860000        -3.9377710000         3.8069330000 
Si       -8.2995220000        -1.6029440000         1.0902710000 
Si       -8.3282450000        -3.5801530000         3.4914880000 
O       -6.3163390000        -0.7278720000        -4.4953600000 
O       -6.4033470000        -6.2757160000         0.9315810000 
O       -6.4012530000         1.8119400000        -5.1736810000 
O       -7.6296120000        -4.8232380000         2.7466620000 
O       -7.6343410000         0.0188170000        -6.6475330000 
O       -5.0006650000        -4.8632380000         2.6403870000 
O       -5.0050820000         0.1191240000        -6.6116330000 
O       -5.7000160000        -7.0221200000        -1.4979540000 
O       -5.6913100000         4.2299240000        -4.3966270000 
O       -6.3096700000        -4.4913630000        -1.0390190000 
O       -6.2431270000         3.7669140000        -6.9222970000 
O       -7.5007290000        -7.7119810000        -3.2839120000 
O       -5.8392230000        -5.7364350000        -3.7874870000 
O       -4.9634040000        -8.2170520000        -3.7213150000 
O       -7.4391570000        -4.9246750000        -5.7078260000 
O       -5.6698190000        -3.2697910000        -4.6857920000 
O       -6.6497860000        -2.2105290000        -2.4373090000 
O       -7.6850060000        -2.4860770000        -0.0921750000 
Si       -6.3380250000        -5.7359290000         2.4482150000 
Si       -6.3402620000         0.3024670000        -5.7337030000 
Si       -5.6102690000        -5.8267960000        -0.4207120000 
Si       -5.5969480000         3.1461220000        -5.5835480000 
Si       -5.9998550000        -7.1709540000        -3.0731440000 
Si       -5.9560640000        -4.7996610000        -5.0920400000 
Si       -5.6605990000        -1.9672530000        -3.6988880000 
Si       -6.3756460000        -2.8780470000        -0.9614840000 
O       -2.2468070000        -5.1687730000        -6.1553010000 
O       -4.8760460000        -5.2690700000        -6.1912110000 
O       -2.3750260000        -1.9291150000         0.2306250000 
O       -4.0334180000        -2.4555150000         2.2029010000 
O       -5.0403710000        -2.2884790000        -0.2824740000 
O       -2.4358450000        -4.3897650000         2.9857900000 
O       -2.3518580000        -7.9241720000        -3.8163240000 
O        9.8714240000        -1.4508040000         0.6213680000 
O        9.8720950000        -3.9583420000         3.7864170000 
Si       -3.9065710000        -1.7400660000         0.7515840000 
Si       -3.9173810000        -3.7726210000         3.1220560000 
O        6.3120010000        -0.7410440000        -4.5085210000 
O        6.4007980000         1.7986000000        -5.1869960000 
O        6.3987140000        -6.2890660000         0.9182860000 
O        7.6270700000         0.0029150000        -6.6633960000 
O        7.6317890000        -4.8391400000         2.7307980000 
O        2.2297630000        -5.1734320000        -6.1599640000 
O        4.9981180000         0.1087010000        -6.6220300000 
O        5.0025360000        -4.8736710000         2.6299690000 
O        4.8587250000        -5.2792180000        -6.2013300000 
O        5.6975110000         4.2180610000        -4.4084670000 
O        5.6887940000        -7.0339930000        -1.5098150000 
O       -4.0587370000        -5.5873120000        -0.0239710000 
O        4.0562200000         2.7632530000        -5.8626900000 
O       -4.0560900000         2.7717150000        -5.8542510000 
O        4.0534730000        -5.5958840000        -0.0325390000 
O        6.2431140000         3.7538930000        -6.9352760000 
O        6.2406380000        -4.5147070000        -1.0133650000 
O        7.4843420000        -7.7275950000        -3.2994890000 
O        5.8259170000        -5.7485850000        -3.7996140000 
O        4.0391030000        -2.4636140000         2.1946200000 
O        4.9450670000        -8.2273790000        -3.7316070000 
O        4.9153490000        -2.3651340000        -0.2849740000 
O        2.4332800000        -0.2303820000        -7.1000850000 
O       -2.4419800000        -0.2252710000        -7.0950080000 
O        7.4235430000        -4.9401650000        -5.7232850000 
O        2.4394250000        -4.3948360000         2.9807230000 
O        5.6597810000        -3.2816170000        -4.6975780000 
O        6.4744310000        -2.2964200000        -2.3978810000 
O       -4.1251640000        -1.6155780000        -3.3469700000 
O        4.1214360000        -1.6245070000        -3.3555820000 
O        7.5268260000        -2.4638440000         0.0066470000 
O        2.3339520000        -7.9290400000        -3.8212020000 
O       -2.0692490000        -6.9872000000         3.1738410000 
O        2.0660800000        -0.4529420000        -4.5052040000 
O       -2.0704210000        -0.4484890000        -4.5010720000 
O        2.0678410000        -6.9915140000         3.1695380000 
O       -1.6025260000        -5.7587080000         0.9007160000 
O        1.6000230000         1.8363940000        -5.7036530000 
O       -1.6014870000         1.8397350000        -5.7003220000 
O        1.5990640000        -5.7618890000         0.8972740000 
O        0.0007320000        -5.3814820000         2.9476030000 
O       -0.0032930000        -0.2052580000        -6.1079530000 
O       -2.1981990000        -6.7727760000        -1.4540130000 
O        2.1956850000         4.1774750000        -4.6584480000 
O       -2.1900960000         4.1820490000        -4.6538810000 
O        2.1874110000        -6.7773180000        -1.4583300000 
O       -2.1375490000        -4.1686360000        -1.1233480000 
O        2.1354160000         3.8813270000        -7.2667070000 
O       -2.1358750000         3.8857780000        -7.2622700000 
O       -0.0072590000        -7.3229720000        -2.7951900000 
O       -1.6108260000        -5.4068170000        -3.6192890000 
O        1.5985440000        -5.4101500000        -3.6226180000 
O        8.2678110000        -2.3001970000         2.5263940000 
O       -0.0064940000        -4.1249530000        -5.2605530000 
O       -2.3140190000        -3.0652970000        -4.5843750000 
O        2.3047510000        -3.0698650000        -4.5891210000 
O       -1.7182420000        -1.8670350000        -2.3174020000 
Si        6.3354790000         0.2892630000        -5.7468720000 
Si        6.3376960000        -5.7491230000         2.4350360000 
Si        5.5984330000         3.1344540000        -5.5951900000 
Si        5.5944590000        -5.8615370000        -0.4103170000 
Si        5.9850450000        -7.1834450000        -3.0855960000 
Si        5.9419870000        -4.8120560000        -5.1043960000 
Si        3.9227000000        -3.7808260000         3.1138850000 
Si        5.6424180000        -1.9857250000        -3.7421610000 
Si        6.2898260000        -2.9076650000        -0.9208910000 
Si       -1.5277090000        -5.6279070000         2.5033890000 
Si        1.5255230000         0.2356480000        -5.8557930000 
Si       -1.5302880000         0.2387880000        -5.8524930000 
Si        1.5277410000        -5.6312060000         2.5002290000 
Si       -2.5000080000        -5.5717530000        -0.4228990000 
Si        2.4973230000         3.1623820000        -5.8729870000 
Si       -2.4963770000         3.1675860000        -5.8677910000 
Si       -1.5425280000        -6.8576890000        -2.9243620000 
Si        1.5288030000        -6.8608830000        -2.9276080000 
Si        8.3361450000        -1.5861080000         1.0848670000 
Si       -1.5440440000        -4.4419430000        -4.9039420000 
Si        1.5311360000        -4.4451580000        -4.9071270000 
Si        8.3345560000        -3.5975290000         3.4741560000 
Si       -2.5565520000        -1.7509660000        -3.6872810000 
O        6.3149660000        -6.9979950000         3.4500460000 
O        7.8061770000        -3.2480460000         7.4692940000 
O       -6.3158040000        -6.9848430000         3.4631770000 
O       -7.7908340000        -3.2317900000         7.4855090000 
H       -4.6506800000        -7.8777640000        -4.5631510000 
H       -7.9248780000        -7.2135550000        -3.9862310000 
H       -2.5504880000        -7.5395100000        -4.6731700000 
H        2.5315930000        -7.5447990000        -4.6784520000 
H        4.6313010000        -7.8874440000        -4.5728000000 
H        7.9080730000        -7.2300470000        -4.0026930000 
H        7.5361450000        -4.2905050000        -6.4210300000 
H        4.8154980000        -4.6284250000        -6.9057410000 
H        2.2780750000        -4.5626320000        -6.8990000000 
H       -2.2953760000        -4.5578660000        -6.8942530000 
H       -4.8329320000        -4.6183720000        -6.8957090000 
H       -7.5518560000        -4.2747820000        -6.4053510000 
H        7.6774540000         0.6614870000        -7.3600680000 
H        4.9706930000         0.7808380000        -7.3069240000 
H        2.4310550000         0.4550560000        -7.7722420000 
H       -2.4397060000         0.4601360000        -7.7671730000 
H       -4.9776880000         0.7912060000        -7.2965810000 
H       -7.6847970000         0.6774980000        -7.3441010000 
H        5.7661580000         4.5498160000        -7.1815030000 
H        2.5634820000         4.7397650000        -7.3045700000 
H       -2.5622280000         4.7451070000        -7.2992390000 
H       -5.7650330000         4.5618390000        -7.1695210000 
H        6.0669960000         7.4520750000        -5.5739540000 
H        1.5115380000         7.3096510000        -5.8875180000 
H       -1.5019920000         7.3127890000        -5.8843870000 
H       -6.0564750000         7.4647050000        -5.5613490000 
H        7.8577840000         8.7261960000        -3.1573530000 
H        3.6203930000         8.9472380000        -3.3406910000 
H       -3.6021170000         8.9547600000        -3.3331860000 
H       -7.8395760000         8.7425610000        -3.1410350000 
H       -9.9821290000         7.5024600000        -3.5974120000 
H      -10.0888280000         4.9998670000         2.0597910000 
H       -9.9799220000         1.4619740000         4.5823660000 
H       -9.9373140000        -0.7562510000        -0.0380680000 
H      -10.4391630000        -3.3967020000         3.2590340000 
H        9.9989990000         1.4411560000         4.5615930000 
H       10.4453580000        -3.4184650000         3.2373210000 
H        9.9421570000        -0.7770020000        -0.0587670000 
H       10.1100330000         4.9788170000         2.0387970000 
H        9.9967930000         7.4816420000        -3.6181750000 
H        7.5938170000         7.9051740000         0.5532910000 
H        5.7145720000         6.5009120000         3.8716060000 
H        4.2144950000         8.1368000000         0.6898620000 
H        2.2465840000         6.7528260000         4.0131920000 
H       -2.2176060000         6.7574820000         4.0178380000 
H       -4.1895350000         8.1455540000         0.6986030000 
H       -5.6863980000         6.5127890000         3.8834530000 
H       -7.5696040000         7.9209780000         0.5690600000 
H       -6.1832490000        -7.7968420000         2.9685300000 
H       -2.7836080000        -7.3442630000         2.6410990000 
H        2.7803220000        -7.3500580000         2.6353150000 
H        6.1796920000        -7.8097290000         2.9556780000 
H        8.5966130000        -2.8426590000         7.8332650000 
H        2.7105060000        -2.8450090000         7.3973480000 
H       -2.6944940000        -2.8393690000         7.4029650000 
H       -8.5796580000        -2.8247590000         7.8511210000 
H        5.5172670000         3.1154400000         8.0483960000 
H        2.6174510000         3.3133770000         8.0137630000 
H       -2.5873200000         3.3188000000         8.0191730000 
H       -5.4874630000         3.1269150000         8.0598380000 
Si        3.8466070000        -1.7365810000         0.7646670000 
Si        2.4827830000        -5.4781470000        -0.4797270000 
Si        2.4802670000        -1.7394760000        -3.5939400000 
Si       -1.4751880000        -2.6861790000        -0.9017380000 
O        2.2402990000        -1.7936390000         0.3938140000 
O        2.3544240000        -4.0902250000        -1.2770650000 
O        1.5117530000        -1.6007590000        -2.3247790000 
O       -0.0377730000        -2.7914560000        -0.1917190000 
Al        1.4762000000        -2.6637230000        -0.9852420000 
H        1.5672900000        -1.6570840000         1.2178180000 
