         381
0 1
B      -10.0810520000        -5.5543490000        -0.0836430000 
N      -11.3466790000        -5.5974200000         0.6432700000 
B       -5.0339090000        -5.6106140000        -0.0951400000 
N       -6.2945860000        -5.6255070000         0.6369740000 
B       -7.5551080000        -5.5894720000        -0.0939090000 
B       -8.8101610000        -5.1679800000         2.0257500000 
N       -8.8150330000        -5.5972360000         0.6372510000 
N      -10.0705940000        -4.8785490000         2.6972520000 
B      -11.3331670000        -5.1934730000         2.0473120000 
N      -12.5666140000        -4.9772110000         2.8033760000 
B        0.0120950000        -5.6415850000        -0.0952110000 
N       -1.2520100000        -5.6622860000         0.6354840000 
B       -2.5112010000        -5.6239230000        -0.0958150000 
B       -3.7712870000        -5.2134760000         2.0264080000 
N       -3.7735820000        -5.6396870000         0.6351910000 
N       -5.0297270000        -4.9390200000         2.7103970000 
B       -6.2915220000        -5.2008810000         2.0294640000 
B       -7.5454740000        -3.9847600000         3.8255520000 
N       -7.5491160000        -4.9155400000         2.7077550000 
N       -8.8020300000        -3.4664920000         4.3471840000 
B      -10.0698270000        -3.9642720000         3.8293540000 
B      -11.3199410000        -2.1966130000         5.0778090000 
N      -11.3328260000        -3.4801910000         4.3791400000 
N      -12.5534870000        -1.5133230000         5.4667750000 
B        5.0551370000        -5.6157110000        -0.0987020000 
N        3.7953580000        -5.6517710000         0.6333500000 
B        2.5292980000        -5.6407530000        -0.0961100000 
B        1.2706610000        -5.2473040000         2.0214710000 
N        1.2715830000        -5.7064870000         0.6398500000 
N        0.0119400000        -4.9610530000         2.7032560000 
B       -1.2500210000        -5.2303850000         2.0236840000 
B       -2.5079440000        -3.9972730000         3.8063100000 
N       -2.5088280000        -4.9439620000         2.7026270000 
N       -3.7638750000        -3.4772060000         4.3305200000 
B       -5.0266620000        -3.9956260000         3.8192230000 
B       -6.2797720000        -2.1870050000         5.0213490000 
N       -6.2823150000        -3.4760140000         4.3447560000 
N       -7.5368530000        -1.5134470000         5.3153320000 
B       -8.7978140000        -2.1792800000         5.0212340000 
B      -10.0628800000        -0.0607560000         5.4684670000 
N      -10.0589600000        -1.5067150000         5.3028220000 
N      -11.3282630000         0.6644430000         5.5302970000 
B       10.1041950000        -5.5479850000        -0.0924760000 
N        8.8388390000        -5.5877830000         0.6291900000 
B        7.5775240000        -5.5879440000        -0.0997060000 
B        6.3156030000        -5.2045000000         2.0242870000 
N        6.3174960000        -5.6269030000         0.6321240000 
N        5.0528410000        -4.9430370000         2.7049680000 
B        3.7942000000        -5.2236620000         2.0233780000 
B        2.5309770000        -4.0001820000         3.7982380000 
N        2.5307440000        -4.9488270000         2.6968840000 
N        1.2706460000        -3.4639390000         4.2934140000 
B        0.0116860000        -4.0007610000         3.7951690000 
B       -1.2459510000        -2.1818430000         4.9807320000 
N       -1.2450210000        -3.4718760000         4.3085620000 
N       -2.5019300000        -1.5076390000         5.2727360000 
B       -3.7621090000        -2.1855180000         5.0019490000 
B       -5.0202140000        -0.0647590000         5.4583740000 
N       -5.0187220000        -1.5124350000         5.3007530000 
N       -6.2787020000         0.6669460000         5.4876700000 
B       -7.5377210000        -0.0664060000         5.4685150000 
B       -8.7992640000         2.0608530000         5.0921970000 
N       -8.7977320000         0.6614690000         5.4820500000 
N      -10.0638810000         2.7343480000         4.8294430000 
B      -11.3219410000         2.0733890000         5.1410280000 
N      -12.5601790000         2.8255590000         4.9412090000 
B       11.3593870000        -5.1856240000         2.0368750000 
N       11.3713730000        -5.5932840000         0.6332210000 
N       10.0966290000        -4.8772090000         2.6901050000 
B        8.8355220000        -5.1660280000         2.0191880000 
B        7.5692510000        -3.9863790000         3.8178210000 
N        7.5736780000        -4.9250830000         2.7061160000 
N        6.3058920000        -3.4772500000         4.3364190000 
B        5.0506260000        -3.9968820000         3.8107410000 
B        3.7863960000        -2.1843990000         4.9887380000 
N        3.7870460000        -3.4753640000         4.3168400000 
N        2.5274120000        -1.5060720000         5.2614180000 
B        1.2703900000        -2.1799600000         4.9764880000 
B        0.0123760000        -0.0589110000         5.4291310000 
N        0.0127370000        -1.5038750000         5.2557700000 
N       -1.2454940000         0.6715120000         5.4540400000 
B       -2.5033900000        -0.0616620000         5.4387740000 
B       -3.7629830000         2.0768090000         5.0939850000 
N       -3.7615810000         0.6694890000         5.4696890000 
N       -5.0236330000         2.7633830000         4.8504890000 
B       -6.2812780000         2.0713030000         5.1019750000 
B       -7.5459040000         3.9087060000         3.9641710000 
N       -7.5419710000         2.7542480000         4.8501860000 
N       -8.8077840000         4.4372610000         3.4674700000 
B      -10.0714000000         3.8936760000         3.9493810000 
B      -11.3324500000         5.1818060000         2.2191990000 
N      -11.3392220000         4.4456680000         3.4814050000 
N      -12.5696350000         5.5727380000         1.5440420000 
N       12.5937570000        -4.9648430000         2.7893220000 
N       11.3573260000        -3.4807020000         4.3758830000 
B       10.0948370000        -3.9623630000         3.8216170000 
B        8.8217670000        -2.1783530000         5.0105810000 
N        8.8257010000        -3.4664580000         4.3385900000 
N        7.5607450000        -1.5136690000         5.3079940000 
B        6.3040540000        -2.1860420000         5.0085980000 
B        5.0444790000        -0.0643400000         5.4467400000 
N        5.0429350000        -1.5113310000         5.2851190000 
N        3.7866810000         0.6698640000         5.4614860000 
B        2.5285490000        -0.0604710000         5.4323760000 
B        1.2714510000         2.0811900000         5.0850860000 
N        1.2702790000         0.6715890000         5.4505030000 
N        0.0124650000         2.7701440000         4.8397050000 
B       -1.2461020000         2.0803780000         5.0860070000 
B       -2.5064340000         3.9317810000         3.9667470000 
N       -2.5054360000         2.7680890000         4.8429140000 
N       -3.7678280000         4.4704570000         3.4766950000 
B       -5.0262690000         3.9221750000         3.9675630000 
B       -6.2888070000         5.1877570000         2.2145260000 
N       -6.2875320000         4.4558460000         3.4731400000 
N       -7.5501340000         5.4892520000         1.5505280000 
B       -8.8084740000         5.1565270000         2.2044950000 
B      -10.0761220000         5.6285620000         0.0957710000 
N      -10.0726660000         5.4409650000         1.5388210000 
N      -11.3420480000         5.6767470000        -0.6302220000 
N       12.5750090000        -1.5162010000         5.4722210000 
B       11.3433260000        -2.1957290000         5.0734350000 
B       10.0859300000        -0.0610130000         5.4706000000 
N       10.0822410000        -1.5044890000         5.2895520000 
N        8.8209950000         0.6618590000         5.4912090000 
B        7.5618660000        -0.0662370000         5.4628790000 
B        6.3063020000         2.0731340000         5.1025620000 
N        6.3030140000         0.6663070000         5.4760210000 
N        5.0492990000         2.7687780000         4.8574190000 
B        3.7889950000         2.0791520000         5.0933590000 
B        2.5330730000         3.9350390000         3.9696500000 
N        2.5308520000         2.7693550000         4.8432300000 
N        1.2733350000         4.4811300000         3.4804200000 
B        0.0130980000         3.9364300000         3.9667600000 
B       -1.2470300000         5.2088280000         2.2170030000 
N       -1.2474730000         4.4797210000         3.4789200000 
N       -2.5077110000         5.5163980000         1.5543730000 
B       -3.7675710000         5.2013180000         2.2159480000 
B       -5.0289210000         5.6736310000         0.1058130000 
N       -5.0290610000         5.5054560000         1.5530470000 
N       -6.2891390000         5.6892280000        -0.6256280000 
B       -7.5501620000         5.6580970000         0.1047230000 
B       -8.8067230000         5.2487730000        -2.0165510000 
N       -8.8102100000         5.6710190000        -0.6256930000 
N      -10.0682100000         4.9667460000        -2.6893200000 
B      -11.3300750000         5.2789300000        -2.0360950000 
N      -12.5642990000         5.0664100000        -2.7916240000 
B       11.3474950000         2.0727490000         5.1527770000 
N       11.3518020000         0.6634170000         5.5431760000 
N       10.0901610000         2.7320980000         4.8357690000 
B        8.8243430000         2.0612320000         5.0980820000 
B        7.5730090000         3.9094620000         3.9685550000 
N        7.5679460000         2.7571030000         4.8578870000 
N        6.3155570000         4.4605680000         3.4795250000 
B        5.0531520000         3.9273280000         3.9734940000 
B        3.7965560000         5.1987430000         2.2173870000 
N        3.7949300000         4.4782470000         3.4844420000 
N        2.5365380000         5.5086930000         1.5536310000 
B        1.2746440000         5.2076660000         2.2170840000 
B        0.0147420000         5.6827510000         0.1063640000 
N        0.0139650000         5.5177970000         1.5545460000 
N       -1.2462550000         5.7037050000        -0.6244180000 
B       -2.5068480000         5.6817740000         0.1063040000 
B       -3.7659130000         5.2789300000        -2.0210140000 
N       -3.7678710000         5.6956760000        -0.6247930000 
N       -5.0261290000         5.0122130000        -2.7037810000 
B       -6.2872170000         5.2742660000        -2.0217600000 
B       -7.5445200000         4.0674110000        -3.8197730000 
N       -7.5462570000         4.9972600000        -2.7004780000 
N       -8.8028300000         3.5506000000        -4.3387480000 
B      -10.0693620000         4.0506250000        -3.8202530000 
B      -11.3229190000         2.2806470000        -5.0618280000 
N      -11.3337400000         3.5664120000        -4.3672290000 
N      -12.5567940000         1.5964320000        -5.4476610000 
N       12.5850160000         2.8269010000         4.9597990000 
N       11.3679390000         4.4459340000         3.4928630000 
B       10.0988920000         3.8905130000         3.9552040000 
B        8.8381450000         5.1493930000         2.2058640000 
N        8.8362860000         4.4296870000         3.4676540000 
N        7.5801320000         5.4847150000         1.5515440000 
B        6.3183330000         5.1840760000         2.2156440000 
B        5.0595470000         5.6670550000         0.1051590000 
N        5.0586590000         5.4969960000         1.5521810000 
N        3.7978470000         5.6939530000        -0.6250100000 
B        2.5367610000         5.6771050000         0.1064070000 
B        1.2744950000         5.2761420000        -2.0185000000 
N        1.2754220000         5.6996500000        -0.6240430000 
N        0.0140820000         5.0071570000        -2.6978360000 
B       -1.2456360000         5.2800230000        -2.0190630000 
B       -2.5052470000         4.0732030000        -3.8154410000 
N       -2.5055250000         5.0105900000        -2.6999430000 
N       -3.7649550000         3.5574950000        -4.3355680000 
B       -5.0249930000         4.0741770000        -3.8187900000 
B       -6.2822300000         2.2670200000        -5.0140590000 
N       -6.2831050000         3.5593800000        -4.3430470000 
N       -7.5406940000         1.5923310000        -5.2991920000 
B       -8.8005400000         2.2608150000        -5.0079270000 
B      -10.0669140000         0.1426910000        -5.4444250000 
N      -10.0625460000         1.5893520000        -5.2866730000 
N      -11.3328230000        -0.5819270000        -5.4998760000 
N       12.6012010000         5.5530900000         1.5458830000 
B       11.3629110000         5.1692380000         2.2216830000 
B       10.1075770000         5.6067420000         0.0956280000 
N       10.1038980000         5.4257750000         1.5393650000 
N        8.8415170000         5.6462230000        -0.6250480000 
B        7.5812410000         5.6444380000         0.1040170000 
B        6.3164890000         5.2583100000        -2.0198360000 
N        6.3200610000         5.6846840000        -0.6267060000 
N        5.0549750000         4.9958830000        -2.7002160000 
B        3.7952440000         5.2695190000        -2.0192370000 
B        2.5314540000         4.0664370000        -3.8147090000 
N        2.5341860000         5.0005040000        -2.6964910000 
N        1.2711640000         3.5551190000        -4.3351080000 
B        0.0127230000         4.0707390000        -3.8148760000 
B       -1.2467240000         2.2633540000        -5.0042610000 
N       -1.2469230000         3.5601090000        -4.3386010000 
N       -2.5060560000         1.5877450000        -5.2850120000 
B       -3.7634750000         2.2646960000        -5.0071010000 
B       -5.0242230000         0.1439570000        -5.4464930000 
N       -5.0232300000         1.5919710000        -5.2968740000 
N       -6.2832540000        -0.5880120000        -5.4686830000 
B       -7.5420010000         0.1451300000        -5.4475000000 
B       -8.8034180000        -1.9803440000        -5.0678170000 
N       -8.8027180000        -0.5813200000        -5.4582550000 
N      -10.0679900000        -2.6557060000        -4.8098190000 
B      -11.3259190000        -1.9925290000        -5.1176660000 
N      -12.5644900000        -2.7449010000        -4.9198650000 
B       11.3610790000         5.2464550000        -2.0350040000 
N       11.3740870000         5.6534070000        -0.6305640000 
N       10.0981710000         4.9382010000        -2.6874430000 
B        8.8366870000         5.2247270000        -2.0160930000 
B        7.5710130000         4.0492310000        -3.8199500000 
N        7.5749870000         4.9810010000        -2.7010210000 
N        6.3089830000         3.5445570000        -4.3428090000 
B        5.0517700000         4.0612060000        -3.8180190000 
B        3.7859250000         2.2593940000        -5.0117320000 
N        3.7902960000         3.5503130000        -4.3365180000 
N        2.5267280000         1.5853970000        -5.2884230000 
B        1.2684720000         2.2608600000        -5.0050880000 
B        0.0093650000         0.1390620000        -5.4399430000 
N        0.0098380000         1.5889480000        -5.2932890000 
N       -1.2495770000        -0.5935160000        -5.4699390000 
B       -2.5046870000         0.1403760000        -5.4403050000 
B       -3.7668840000        -1.9921190000        -5.0711290000 
N       -3.7666370000        -0.5897630000        -5.4574700000 
N       -5.0267850000        -2.6817980000        -4.8286730000 
B       -6.2850630000        -1.9906990000        -5.0797700000 
B       -7.5489500000        -3.8307530000        -3.9459750000 
N       -7.5458130000        -2.6742850000        -4.8286250000 
N       -8.8112640000        -4.3616680000        -3.4516850000 
B      -10.0746860000        -3.8173720000        -3.9328380000 
B      -11.3366610000        -5.1078620000        -2.2063510000 
N      -11.3428040000        -4.3718510000        -3.4683920000 
N      -12.5752730000        -5.4932630000        -1.5299940000 
N       12.5954590000         5.0277200000        -2.7877730000 
N       11.3594890000         3.5447340000        -4.3757020000 
B       10.0964760000         4.0258660000        -3.8215520000 
B        8.8228400000         2.2456460000        -5.0173030000 
N        8.8283540000         3.5317910000        -4.3407870000 
N        7.5623130000         1.5843390000        -5.3216910000 
B        6.3048030000         2.2567890000        -5.0230640000 
B        5.0425070000         0.1372030000        -5.4559360000 
N        5.0441150000         1.5858850000        -5.3063180000 
N        3.7842360000        -0.5938860000        -5.4656660000 
B        2.5239910000         0.1374360000        -5.4429490000 
B        1.2650710000        -1.9963420000        -5.0726400000 
N        1.2665460000        -0.5941020000        -5.4649730000 
N        0.0075560000        -2.6936650000        -4.8385760000 
B       -1.2465380000        -1.9936520000        -5.0714650000 
B       -2.5070310000        -3.8438460000        -3.9401400000 
N       -2.5092690000        -2.6720360000        -4.8004120000 
N       -3.7701580000        -4.3753170000        -3.4454740000 
B       -5.0294010000        -3.8394560000        -3.9455880000 
B       -6.2922010000        -5.1167180000        -2.2018190000 
N       -6.2902880000        -4.3813990000        -3.4587420000 
N       -7.5540950000        -5.4217080000        -1.5396040000 
B       -8.8122010000        -5.0861450000        -2.1919500000 
N      -10.0771840000        -5.3730110000        -1.5275780000 
N       12.5772860000         1.5769530000        -5.4654300000 
B       11.3450840000         2.2593060000        -5.0726140000 
B       10.0849000000         0.1261080000        -5.4677680000 
N       10.0837230000         1.5706820000        -5.2935130000 
N        8.8194300000        -0.5944180000        -5.4860330000 
B        7.5604170000         0.1357990000        -5.4669680000 
B        6.3013770000        -1.9972620000        -5.0874580000 
N        6.3013180000        -0.5955890000        -5.4813950000 
N        5.0438940000        -2.6850620000        -4.8310650000 
B        3.7828770000        -1.9967950000        -5.0766380000 
B        2.5253230000        -3.8405650000        -3.9393780000 
N        2.5256720000        -2.6830580000        -4.8212350000 
N        1.2672380000        -4.3866790000        -3.4500260000 
B        0.0097970000        -3.8404800000        -3.9410020000 
B       -1.2481180000        -5.1327270000        -2.1970100000 
N       -1.2505330000        -4.3859650000        -3.4483530000 
N       -2.5116210000        -5.4513500000        -1.5421010000 
B       -3.7701640000        -5.1281990000        -2.1982260000 
N       -5.0337340000        -5.4373800000        -1.5411500000 
B       11.3426950000        -2.0087570000        -5.1443300000 
N       11.3502230000        -0.6000810000        -5.5359420000 
N       10.0846660000        -2.6643940000        -4.8237350000 
B        8.8193970000        -1.9911680000        -5.0855770000 
B        7.5661780000        -3.8373410000        -3.9536870000 
N        7.5625720000        -2.6827410000        -4.8397370000 
N        6.3084270000        -4.3844030000        -3.4623530000 
B        5.0454120000        -3.8429840000        -3.9482320000 
B        3.7881600000        -5.1259700000        -2.1998640000 
N        3.7876280000        -4.3866930000        -3.4544110000 
N        2.5305170000        -5.4467660000        -1.5389520000 
B        1.2681420000        -5.1257830000        -2.1949050000 
N        0.0094120000        -5.4595610000        -1.5408240000 
N       12.5791000000        -2.7660280000        -4.9548410000 
N       11.3610950000        -4.3840600000        -3.4884480000 
B       10.0920090000        -3.8257330000        -3.9476960000 
B        8.8319120000        -5.0877300000        -2.2003420000 
N        8.8296870000        -4.3690700000        -3.4630550000 
N        7.5750860000        -5.4238200000        -1.5456770000 
B        6.3111300000        -5.1188290000        -2.2060110000 
N        5.0531540000        -5.4407480000        -1.5439910000 
N       12.5968050000        -5.4899880000        -1.5433410000 
B       11.3570140000        -5.1083870000        -2.2185050000 
N       10.0988500000        -5.3664560000        -1.5357470000 
H      -13.4298620000        -5.3633340000         2.4717130000 
H      -13.4137080000        -2.0251770000         5.5171490000 
H      -13.4197680000         2.4848290000         5.3277210000 
H      -13.4322840000         5.5937740000         2.0539750000 
H       13.4595850000        -5.3395840000         2.4497330000 
H       13.4368300000        -2.0271200000         5.5117740000 
H      -13.4270410000         5.4518310000        -2.4576280000 
H      -13.4166980000         2.1083620000        -5.5009480000 
H       13.4472590000         2.4767710000         5.3332740000 
H       13.4672850000         5.5551050000         2.0517090000 
H      -13.4244040000        -2.4024480000        -5.3042280000 
H      -13.4379240000        -5.5125020000        -2.0397490000 
H       13.4612000000         5.4030590000        -2.4487730000 
H       13.4402960000         2.0857880000        -5.5025480000 
H       13.4411590000        -2.4177980000        -5.3306180000 
H       13.4624620000        -5.4886610000        -2.0499430000 
C       -0.3277460000        -1.7358080000         0.5860100000 
H        0.2712960000         0.3783320000         0.6623860000 
H        0.2451560000        -0.4266930000         2.2364830000 
C       -0.2645160000        -0.3661280000         1.2647280000 
H       -1.2669210000         0.0354290000         1.4643820000 
N        0.9798150000        -2.4130420000         0.4109730000 
H        1.4662420000        -2.4895970000         1.2951430000 
H        1.5677540000        -1.9456950000        -0.2721440000 
C       -0.9157510000        -1.5822760000        -0.8184220000 
O       -0.4153560000        -1.1192700000        -1.8153050000 
O       -2.2047480000        -2.0522590000        -0.8444790000 
H       -2.5841080000        -2.0604920000        -1.7651510000 
H       -0.9880090000        -2.4264470000         1.1885710000 
B      -12.5605300000         3.9700760000         4.0855900000 
H      -13.5985690000         4.5129740000         3.8523300000 
B      -12.5666140000         5.7662620000         0.1282260000 
H      -13.6041250000         5.9746400000        -0.4259570000 
B      -12.5582050000         4.1808090000        -3.9130430000 
H      -13.5932910000         3.9321050000        -4.4546150000 
B      -12.5529240000         0.1782660000        -5.6232540000 
H      -13.5878130000        -0.3759470000        -5.8445390000 
B      -12.5643380000        -3.8932970000        -4.0698250000 
H      -13.6018880000        -4.4377860000        -3.8379570000 
B      -12.5721110000        -5.6841920000        -0.1141890000 
H      -13.6099640000        -5.8872030000         0.4412150000 
B      -12.5583560000        -4.0927320000         3.9255380000 
H      -13.5927430000        -3.8428750000         4.4682090000 
B      -12.5494070000        -0.0959840000         5.6475550000 
H      -13.5839960000         0.4582520000         5.8701430000 
B       12.5880530000         3.9627310000         4.0926410000 
H       13.6290980000         4.4976390000         3.8517590000 
B       12.5992570000         5.7298490000         0.1275960000 
H       13.6395710000         5.9220050000        -0.4279040000 
B       12.5866460000         4.1447920000        -3.9107720000 
H       13.6224260000         3.8890560000        -4.4486320000 
B       12.5725400000         0.1589810000        -5.6417050000 
H       13.6086680000        -0.3961340000        -5.8562500000 
B       12.5812120000        -3.9031440000        -4.0899980000 
H       13.6210860000        -4.4416100000        -3.8523040000 
B       12.5964210000        -5.6666980000        -0.1256280000 
H       13.6374100000        -5.8558450000         0.4297160000 
B       12.5848840000        -4.0807490000         3.9111220000 
H       13.6207680000        -3.8236940000         4.4483480000 
B       12.5722650000        -0.0985750000         5.6515810000 
H       13.6084980000         0.4542210000         5.8715540000 
