          13
0 1
C       -0.3234540000        -1.8164690000         0.2147760000 
H        0.2756770000         0.2371010000         0.7228750000 
H        0.2502660000        -0.8736720000         2.0984000000 
C       -0.2598670000        -0.6151160000         1.1599680000 
H       -1.2621670000        -0.2631210000         1.4382110000 
N        0.9840070000        -2.4433070000        -0.0960620000 
H        1.4708530000        -2.6995500000         0.7533780000 
H        1.5716330000        -1.8457390000        -0.6690740000 
C       -0.9121220000        -1.3781820000        -1.1280300000 
O       -0.4121900000        -0.7205140000        -2.0089870000 
O       -2.2011430000        -1.8329230000        -1.2493240000 
H       -2.5809410000        -1.6521700000        -2.1519320000 
H       -0.9834460000        -2.6160630000         0.6631800000 
