         368
0 1
B      -10.0906110000         5.5925760000         0.1682290000 
N      -11.3564490000         5.6462780000        -0.5576080000 
B       -5.0434420000         5.6465810000         0.1788890000 
N       -6.3043420000         5.6721780000        -0.5525430000 
B       -7.5646500000         5.6265040000         0.1781730000 
B       -8.8205460000         5.2350550000        -1.9467400000 
N       -8.8248010000         5.6449590000        -0.5524040000 
N      -10.0813130000         4.9555130000        -2.6217980000 
B      -11.3435480000         5.2618910000        -1.9671370000 
N      -12.5773240000         5.0566780000        -2.7257390000 
B        0.0025750000         5.6754530000         0.1777730000 
N       -1.2617510000         5.7068400000        -0.5521580000 
B       -2.5207290000         5.6588320000         0.1789410000 
B       -3.7816550000         5.2784640000        -1.9483810000 
N       -3.7833330000         5.6852850000        -0.5513700000 
N       -5.0404240000         5.0140690000        -2.6357170000 
B       -6.3018960000         5.2669580000        -1.9508040000 
B       -7.5569230000         4.0764550000        -3.7632300000 
N       -7.5598230000         4.9916010000        -2.6325950000 
N       -8.8138600000         3.5660140000        -4.2916160000 
B      -10.0812850000         4.0570700000        -3.7665070000 
B      -11.3325340000         2.3074640000        -5.0390240000 
N      -11.3446610000         3.5812060000        -4.3225670000 
N      -12.5664890000         1.6301620000        -5.4370600000 
B        5.0456060000         5.6474410000         0.1792860000 
N        3.7856120000         5.6942010000        -0.5517880000 
B        2.5197770000         5.6735640000         0.1778540000 
B        1.2603090000         5.3101270000        -1.9445920000 
N        1.2618580000         5.7500500000        -0.5567180000 
N        0.0012530000         5.0339090000        -2.6298870000 
B       -1.2603810000         5.2942870000        -1.9462310000 
B       -2.5193830000         4.0866090000        -3.7454310000 
N       -2.5195210000         5.0178560000        -2.6286880000 
N       -3.7756970000         3.5744050000        -4.2764200000 
B       -5.0381050000         4.0861870000        -3.7575570000 
B       -6.2923520000         2.2949810000        -4.9843190000 
N       -6.2941410000         3.5744550000        -4.2898640000 
N       -7.5498070000         1.6260980000        -5.2872390000 
B       -8.8103970000         2.2883000000        -4.9835040000 
B      -10.0764910000         0.1767250000        -5.4597520000 
N      -10.0719140000         1.6202390000        -5.2740150000 
N      -11.3421990000        -0.5470180000        -5.5312570000 
B       10.0946330000         5.5777130000         0.1705000000 
N        8.8290660000         5.6280680000        -0.5501370000 
B        7.5679810000         5.6186160000         0.1790960000 
B        6.3052310000         5.2652730000        -1.9496200000 
N        6.3077400000         5.6682720000        -0.5517180000 
N        5.0421450000         5.0138260000        -2.6334670000 
B        3.7838360000         5.2854670000        -1.9476360000 
B        2.5195410000         4.0873140000        -3.7389350000 
N        2.5200540000         5.0205490000        -2.6244940000 
N        1.2588300000         3.5585330000        -4.2411160000 
B        0.0002520000         4.0888950000        -3.7350500000 
B       -1.2585210000         2.2871650000        -4.9453930000 
N       -1.2568380000         3.5677230000        -4.2553460000 
N       -2.5148750000         1.6176090000        -5.2463420000 
B       -3.7746840000         2.2921790000        -4.9657500000 
B       -5.0338220000         0.1784950000        -5.4512220000 
N       -5.0316730000         1.6238380000        -5.2734830000 
N       -6.2926260000        -0.5522100000        -5.4902880000 
B       -7.5513300000         0.1813270000        -5.4605310000 
B       -8.8136470000        -1.9504350000        -5.1134310000 
N       -8.8116510000        -0.5457660000        -5.4837840000 
N      -10.0784640000        -2.6269950000        -4.8596630000 
B      -11.3363440000        -1.9612440000        -5.1616220000 
N      -12.5748350000        -2.7156060000        -4.9718870000 
B       11.3490020000         5.2444810000        -1.9640870000 
N       11.3616010000         5.6325740000        -0.5549020000 
N       10.0859100000         4.9457050000        -2.6211380000 
B        8.8251350000         5.2256870000        -1.9458650000 
B        7.5578030000         4.0716940000        -3.7603230000 
N        7.5629740000         4.9948430000        -2.6356720000 
N        6.2940680000         3.5703510000        -4.2855480000 
B        5.0391850000         4.0831420000        -3.7522910000 
B        3.7738240000         2.2877430000        -4.9549760000 
N        3.7752280000         3.5692380000        -4.2651890000 
N        2.5144700000         1.6137970000        -5.2366600000 
B        1.2578200000         2.2841780000        -4.9419820000 
B       -0.0012260000         0.1701530000        -5.4236770000 
N       -0.0002040000         1.6125650000        -5.2302370000 
N       -1.2594090000        -0.5593320000        -5.4583390000 
B       -2.5169930000         0.1740810000        -5.4324740000 
B       -3.7773750000        -1.9684560000        -5.1170550000 
N       -3.7755010000        -0.5560470000        -5.4731510000 
N       -5.0382350000        -2.6578260000        -4.8827280000 
B       -6.2956690000        -1.9617930000        -5.1241610000 
B       -7.5607070000        -3.8143180000        -4.0116150000 
N       -7.5565700000        -2.6476510000        -4.8814900000 
N       -8.8226530000        -4.3492060000        -3.5219080000 
B      -10.0861930000        -3.7984470000        -3.9958080000 
B      -11.3472370000        -5.1099920000        -2.2833040000 
N      -11.3540980000        -4.3563680000        -3.5351480000 
N      -12.5843740000        -5.5097630000        -1.6132530000 
N       12.5830430000         5.0336730000        -2.7199280000 
N       11.3454900000         3.5722550000        -4.3265800000 
B       10.0833770000         4.0466840000        -3.7652630000 
B        8.8091850000         2.2799110000        -4.9785150000 
N        8.8138710000         3.5585440000        -4.2886760000 
N        7.5477910000         1.6199520000        -5.2847390000 
B        6.2914760000         2.2886170000        -4.9756190000 
B        5.0308740000         0.1737370000        -5.4428220000 
N        5.0299880000         1.6183410000        -5.2610920000 
N        3.7727630000        -0.5596690000        -5.4673740000 
B        2.5149470000         0.1707130000        -5.4277070000 
B        1.2570600000        -1.9750500000        -5.1098330000 
N        1.2563640000        -0.5605020000        -5.4556100000 
N       -0.0021380000        -2.6668260000        -4.8736540000 
B       -1.2604930000        -1.9731800000        -5.1099350000 
B       -2.5212490000        -3.8394470000        -4.0161280000 
N       -2.5200380000        -2.6636820000        -4.8760260000 
N       -3.7827140000        -4.3843630000        -3.5332110000 
B       -5.0410800000        -3.8287840000        -4.0160030000 
B       -6.3035970000        -5.1181010000        -2.2803320000 
N       -6.3024100000        -4.3687570000        -3.5286450000 
N       -7.5648400000        -5.4282780000        -1.6201860000 
B       -8.8232470000        -5.0859680000        -2.2690590000 
B      -10.0904290000        -5.5867590000        -0.1666980000 
N      -10.0873480000        -5.3791120000        -1.6070010000 
N      -11.3561460000        -5.6445110000         0.5589600000 
N       12.5620040000         1.6226870000        -5.4505230000 
B       11.3307310000         2.2971130000        -5.0419300000 
B       10.0723150000         0.1686500000        -5.4683430000 
N       10.0692880000         1.6094690000        -5.2672360000 
N        8.8070700000        -0.5533410000        -5.4985970000 
B        7.5482560000         0.1748130000        -5.4597410000 
B        6.2919080000        -1.9688400000        -5.1288100000 
N        6.2890930000        -0.5569540000        -5.4826660000 
N        5.0346900000        -2.6673050000        -4.8929620000 
B        3.7746020000        -1.9739420000        -5.1188840000 
B        2.5182560000        -3.8447560000        -4.0206920000 
N        2.5162490000        -2.6670340000        -4.8779750000 
N        1.2584430000        -4.3970750000        -3.5387010000 
B       -0.0017190000        -3.8451410000        -4.0170140000 
B       -1.2618290000        -5.1412280000        -2.2847180000 
N       -1.2623640000        -4.3946410000        -3.5363720000 
N       -2.5224310000        -5.4574610000        -1.6260250000 
B       -3.7823670000        -5.1326880000        -2.2827500000 
B       -5.0432500000        -5.6337780000        -0.1789840000 
N       -5.0437760000        -5.4454920000        -1.6237390000 
N       -6.3032440000        -5.6590240000         0.5525740000 
B       -7.5644850000        -5.6172150000        -0.1768700000 
B       -8.8202050000        -5.2369110000         1.9502950000 
N       -8.8243070000        -5.6397710000         0.5537000000 
N      -10.0813620000        -4.9637450000         2.6273250000 
B      -11.3435630000        -5.2662900000         1.9702270000 
N      -12.5774600000        -5.0637860000         2.7290340000 
B       11.3330850000        -1.9698490000        -5.1806310000 
N       11.3378600000        -0.5552260000        -5.5513930000 
N       10.0755750000        -2.6330220000        -4.8724210000 
B        8.8099550000        -1.9580480000        -5.1249720000 
B        7.5582020000        -3.8212880000        -4.0208570000 
N        7.5533420000        -2.6566700000        -4.8940750000 
N        6.3006720000        -4.3786200000        -3.5391360000 
B        5.0383360000        -3.8380380000        -4.0252370000 
B        3.7817600000        -5.1332320000        -2.2865790000 
N        3.7800370000        -4.3951830000        -3.5434910000 
N        2.5218210000        -5.4518610000        -1.6267940000 
B        1.2598450000        -5.1411120000        -2.2855910000 
B        0.0004080000        -5.6449840000        -0.1812790000 
N       -0.0007560000        -5.4599040000        -1.6270270000 
N       -1.2603680000        -5.6755760000         0.5495450000 
B       -2.5211810000        -5.6429610000        -0.1803970000 
B       -3.7794070000        -5.2692190000         1.9527210000 
N       -3.7819790000        -5.6665060000         0.5508410000 
N       -5.0392960000        -5.0115020000         2.6395360000 
B       -6.3007090000        -5.2635200000         1.9543410000 
B       -7.5569390000        -4.0812660000         3.7693680000 
N       -7.5594190000        -4.9954580000         2.6372500000 
N       -8.8148690000        -3.5712010000         4.2958840000 
B      -10.0817740000        -4.0634410000         3.7708900000 
B      -11.3341970000        -2.3103820000         5.0373640000 
N      -11.3457760000        -3.5863570000         4.3249540000 
N      -12.5676630000        -1.6310870000         5.4330710000 
N       12.5703500000        -2.7271260000        -4.9985570000 
N       11.3530560000        -4.3658990000        -3.5538900000 
B       10.0840970000        -3.8035750000        -4.0080540000 
B        8.8233720000        -5.0861400000        -2.2759880000 
N        8.8214180000        -4.3489540000        -3.5276450000 
N        7.5654250000        -5.4300070000        -1.6259920000 
B        6.3035430000        -5.1196370000        -2.2854410000 
B        5.0452190000        -5.6313990000        -0.1814740000 
N        5.0439470000        -5.4412320000        -1.6259900000 
N        3.7837380000        -5.6679260000         0.5486550000 
B        2.5224290000        -5.6403840000        -0.1820520000 
B        1.2610010000        -5.2684900000         1.9486300000 
N        1.2613110000        -5.6725620000         0.5484180000 
N        0.0009150000        -5.0084550000         2.6320450000 
B       -1.2591320000        -5.2713310000         1.9499470000 
B       -2.5176700000        -4.0890900000         3.7633400000 
N       -2.5186930000        -5.0108720000         2.6349130000 
N       -3.7769990000        -3.5801430000         4.2909930000 
B       -5.0374160000        -4.0890640000         3.7674820000 
B       -6.2935180000        -2.2981840000         4.9881730000 
N       -6.2951460000        -3.5810870000         4.2992520000 
N       -7.5516090000        -1.6270040000         5.2830650000 
B       -8.8118270000        -2.2908490000         4.9829350000 
B      -10.0771750000        -0.1784750000         5.4492550000 
N      -10.0734640000        -1.6228040000         5.2713970000 
N      -11.3427620000         0.5458270000         5.5151850000 
N       12.5864670000        -5.5005380000        -1.6228920000 
B       11.3481250000        -5.1068110000        -2.2928910000 
B       10.0932770000        -5.5733200000        -0.1727230000 
N       10.0892200000        -5.3722890000        -1.6138030000 
N        8.8274270000        -5.6222950000         0.5477390000 
B        7.5669230000        -5.6098470000        -0.1808260000 
B        6.3030020000        -5.2527700000         1.9485970000 
N        6.3059560000        -5.6597280000         0.5496710000 
N        5.0418120000        -4.9993080000         2.6329650000 
B        3.7817520000        -5.2629230000         1.9486510000 
B        2.5190320000        -4.0844040000         3.7610870000 
N        2.5210210000        -5.0028300000         2.6299850000 
N        1.2591200000        -3.5798500000         4.2889500000 
B        0.0003000000        -4.0876630000         3.7620010000 
B       -1.2580140000        -2.2964720000         4.9768120000 
N       -1.2589670000        -3.5838430000         4.2931810000 
N       -2.5169740000        -1.6243100000         5.2673360000 
B       -3.7747640000        -2.2968090000         4.9804400000 
B       -5.0344840000        -0.1818630000         5.4496890000 
N       -5.0341460000        -1.6276560000         5.2799450000 
N       -6.2932010000         0.5502490000         5.4824600000 
B       -7.5522630000        -0.1820040000         5.4514870000 
B       -8.8129080000         1.9490670000         5.1018050000 
N       -8.8126720000         0.5447490000         5.4727480000 
N      -10.0772770000         2.6284780000         4.8536300000 
B      -11.3353870000         1.9616050000         5.1526280000 
N      -12.5737050000         2.7171690000         4.9657070000 
B       11.3476000000        -5.2432210000         1.9623110000 
N       11.3599960000        -5.6306060000         0.5523430000 
N       10.0850270000        -4.9435470000         2.6193790000 
B        8.8232120000        -5.2201840000         1.9445130000 
B        7.5585990000        -4.0693650000         3.7649510000 
N        7.5618300000        -4.9854840000         2.6331700000 
N        6.2969460000        -3.5714880000         4.2951830000 
B        5.0393520000        -4.0802650000         3.7636610000 
B        3.7746380000        -2.2947050000         4.9827230000 
N        3.7782550000        -3.5761100000         4.2896200000 
N        2.5158110000        -1.6240990000         5.2691650000 
B        1.2571830000        -2.2950330000         4.9768670000 
B       -0.0008980000        -0.1789660000         5.4415930000 
N       -0.0010790000        -1.6266720000         5.2747880000 
N       -1.2595220000         0.5536460000         5.4821780000 
B       -2.5149490000        -0.1792420000         5.4427430000 
B       -3.7763680000         1.9587050000         5.1036660000 
N       -3.7765870000         0.5511110000         5.4704650000 
N       -5.0360560000         2.6522120000         4.8712290000 
B       -6.2945450000         1.9582100000         5.1130930000 
B       -7.5580160000         3.8143800000         4.0054050000 
N       -7.5550870000         2.6457460000         4.8718840000 
N       -8.8202630000         4.3526410000         3.5189510000 
B      -10.0837620000         3.8022310000         3.9928930000 
B      -11.3457390000         5.1171310000         2.2849250000 
N      -11.3517940000         4.3636420000         3.5366100000 
N      -12.5844020000         5.5124160000         1.6143910000 
N       12.5823090000        -5.0354880000         2.7176540000 
N       11.3474620000        -3.5742180000         4.3264500000 
B       10.0840720000        -4.0470720000         3.7660680000 
B        8.8115600000        -2.2831260000         4.9868700000 
N        8.8163220000        -3.5597400000         4.2925300000 
N        7.5514060000        -1.6255940000         5.3008300000 
B        6.2935200000        -2.2933030000         4.9932830000 
B        5.0322500000        -0.1794190000         5.4559970000 
N        5.0332030000        -1.6258810000         5.2862440000 
N        3.7742890000         0.5519870000         5.4762970000 
B        2.5137300000        -0.1784260000         5.4438150000 
B        1.2555880000         1.9608180000         5.1036220000 
N        1.2565990000         0.5532570000         5.4764140000 
N       -0.0017080000         2.6618510000         4.8796820000 
B       -1.2560210000         1.9591870000         5.1032140000 
B       -2.5160940000         3.8254590000         3.9981350000 
N       -2.5185530000         2.6417990000         4.8420280000 
N       -3.7791540000         4.3642830000         3.5113140000 
B       -5.0384650000         3.8220410000         4.0043310000 
B       -6.3012770000         5.1239560000         2.2788990000 
N       -6.2992770000         4.3712260000         3.5254740000 
N       -7.5632520000         5.4386500000         1.6213950000 
B       -8.8212930000         5.0945690000         2.2694140000 
N      -10.0863650000         5.3911720000         1.6095020000 
N       12.5664270000        -1.6222890000         5.4430500000 
B       11.3338150000        -2.2986010000         5.0411770000 
B       10.0746510000        -0.1705820000         5.4663640000 
N       10.0728130000        -1.6125920000         5.2720360000 
N        8.8094890000         0.5501450000         5.4950550000 
B        7.5501640000        -0.1792140000         5.4662400000 
B        6.2918990000         1.9594410000         5.1168360000 
N        6.2913760000         0.5524250000         5.4912410000 
N        5.0346240000         2.6512630000         4.8704370000 
B        3.7733950000         1.9601710000         5.1068180000 
B        2.5162570000         3.8201010000         3.9957140000 
N        2.5163980000         2.6504410000         4.8613870000 
N        1.2582470000         4.3734900000         3.5144080000 
B        0.0007320000         3.8210380000         3.9981440000 
B       -1.2571900000         5.1379370000         2.2726960000 
N       -1.2595240000         4.3738440000         3.5135330000 
N       -2.5207660000         5.4661620000         1.6226860000 
B       -3.7792370000         5.1344390000         2.2746570000 
N       -5.0428840000         5.4532530000         1.6223500000 
B       11.3332390000         1.9680520000         5.1722460000 
N       11.3402990000         0.5540630000         5.5442260000 
N       10.0753840000         2.6286060000         4.8612030000 
B        8.8099160000         1.9523290000         5.1140630000 
B        7.5571150000         3.8145860000         4.0083600000 
N        7.5533040000         2.6477770000         4.8782680000 
N        6.2994380000         4.3689500000         3.5250860000 
B        5.0363500000         3.8213500000         4.0037930000 
B        3.7790860000         5.1290510000         2.2738410000 
N        3.7786390000         4.3723970000         3.5179850000 
N        2.5213690000         5.4595290000         1.6178570000 
B        1.2590660000         5.1299780000         2.2696880000 
N        0.0002700000         5.4733430000         1.6207160000 
N       12.5699020000         2.7273730000         4.9929100000 
N       11.3521140000         4.3661480000         3.5495540000 
B       10.0829390000         3.8020140000         4.0013990000 
B        8.8228210000         5.0887140000         2.2721700000 
N        8.8206920000         4.3525630000         3.5247660000 
N        7.5659300000         5.4343980000         1.6226450000 
B        6.3020540000         5.1207770000         2.2790790000 
N        5.0440050000         5.4523940000         1.6220030000 
N       12.5876750000         5.4985080000         1.6196190000 
B       11.3479360000         5.1080680000         2.2898080000 
N       10.0896670000         5.3761310000         1.6111090000 
H      -13.4403050000         5.4385090000        -2.3884620000 
H      -13.4265110000         2.1430240000        -5.4800340000 
H      -13.4344030000        -2.3691780000        -5.3533470000 
H      -13.4471920000        -5.5233460000        -2.1231520000 
H       13.4491350000         5.4032950000        -2.3754370000 
H       13.4240260000         2.1337480000        -5.4832430000 
H      -13.4404690000        -5.4441670000         2.3899870000 
H      -13.4277650000        -2.1433520000         5.4795090000 
H       13.4326220000        -2.3721940000        -5.3674030000 
H       13.4523910000        -5.4958780000        -2.1289740000 
H      -13.4336410000         2.3697600000         5.3455460000 
H      -13.4468850000         5.5249210000         2.1246410000 
H       13.4477860000        -5.4064360000         2.3731890000 
H       13.4292350000        -2.1319490000         5.4728100000 
H       13.4319330000         2.3735920000         5.3635320000 
H       13.4534910000         5.4897770000         2.1258760000 
B      -12.5753970000        -3.8719120000        -4.1322680000 
H      -13.6135900000        -4.4175710000        -3.9062480000 
B      -12.5809880000        -5.7229610000        -0.2002660000 
H      -13.6184120000        -5.9385950000         0.3512980000 
B      -12.5706420000        -4.1938700000         3.8626600000 
H      -13.6054530000        -3.9522920000         4.4079690000 
B      -12.5631430000        -0.2155020000         5.6283690000 
H      -13.5977300000         0.3360090000         5.8576730000 
B      -12.5733390000         3.8772770000         4.1317210000 
H      -13.6107330000         4.4253680000         3.9077810000 
B      -12.5816060000         5.7230160000         0.2013780000 
H      -13.6195490000         5.9341620000        -0.3508160000 
B      -12.5697900000         4.1878880000        -3.8600960000 
H      -13.6044530000         3.9460320000        -4.4058590000 
B      -12.5630600000         0.2154730000        -5.6375360000 
H      -13.5979510000        -0.3351850000        -5.8674790000 
B       12.5731830000        -3.8749080000        -4.1472810000 
H       13.6140800000        -4.4135460000        -3.9141950000 
B       12.5848940000        -5.6970050000        -0.2072000000 
H       13.6253030000        -5.8972990000         0.3452400000 
B       12.5742200000        -4.1682610000         3.8528270000 
H       13.6102770000        -3.9204610000         4.3938580000 
B       12.5623320000        -0.2069030000         5.6390300000 
H       13.5987590000         0.3447440000         5.8609420000 
B       12.5722190000         3.8764050000         4.1439650000 
H       13.6122440000         4.4176930000         3.9134490000 
B       12.5869190000         5.6949180000         0.2045010000 
H       13.6278120000         5.8913380000        -0.3484920000 
B       12.5734450000         4.1652710000        -3.8539120000 
H       13.6090530000         3.9152820000        -4.3949930000 
B       12.5586080000         0.2076940000        -5.6495810000 
H       13.5945400000        -0.3424200000        -5.8775530000 
