         122
0 1
C       24.1403380000         2.4308240000         3.3952920000 
H       23.8700300000         3.1518480000         4.1788750000 
H       24.4599930000         1.5127370000         3.9076420000 
H       25.0267800000         2.8344240000         2.8869040000 
C       23.0030600000         2.1906180000         2.4533480000 
H       22.0997430000         1.8760640000         3.0312790000 
H       22.6944780000         3.1679830000         2.0057600000 
C       23.2671020000         1.2051180000         1.3779600000 
H       23.2946210000         0.1775360000         1.8233630000 
H       24.3043920000         1.3461360000         0.9769150000 
C       22.3619650000         1.2026520000         0.1973280000 
H       22.2688550000         2.2191790000        -0.2548030000 
H       22.7506310000         0.5267050000        -0.6029880000 
C       20.0723240000         0.7330930000        -0.4232930000 
C       17.7559820000        -0.1318480000        -0.7818460000 
H       17.6530280000        -1.2396160000        -0.6533770000 
H       17.9810740000         0.0258730000        -1.8720750000 
C       16.4594950000         0.5693930000        -0.4119030000 
H       16.3637580000         0.6247310000         0.6975430000 
H       16.5320180000         1.6384540000        -0.7260450000 
C       15.2354810000        -0.0563530000        -0.9919930000 
H       15.1320750000        -1.1067520000        -0.6340250000 
H       15.3547460000        -0.1561420000        -2.0976790000 
C       13.9626820000         0.7002290000        -0.6956220000 
H       13.7476580000         0.6254240000         0.3968540000 
H       14.1301160000         1.7912140000        -0.8589600000 
C       12.7748560000         0.2573780000        -1.4851000000 
H       12.9140010000         0.5411470000        -2.5577270000 
H       12.7640490000        -0.8630690000        -1.5210530000 
C       11.4962870000         0.7606610000        -0.9801110000 
H       11.3853500000         1.8497280000        -1.2079920000 
H       11.4757970000         0.7337500000         0.1398110000 
C       10.3084910000         0.0110470000        -1.5027970000 
H       10.4436990000        -1.0748990000        -1.2619100000 
H       10.3247320000         0.0370760000        -2.6202270000 
C        8.9429760000         0.4393410000        -1.0302950000 
H        8.9957150000         0.6759950000         0.0728230000 
H        8.6855600000         1.4306650000        -1.4967370000 
C        6.5129370000        -0.1333080000        -1.0787820000 
C        4.3007640000        -1.0627400000        -1.1673700000 
H        3.9343260000        -1.9406940000        -1.7484540000 
H        3.8507750000        -0.1324000000        -1.5762560000 
C        4.0369500000        -1.1886450000         0.3201990000 
H        4.0985740000        -2.2285990000         0.7006220000 
H        4.6939790000        -0.5176720000         0.9216300000 
C        1.7541170000        -1.4625000000         0.2694670000 
C       -0.7121900000        -1.7465390000         0.2190710000 
H       -0.4417690000        -2.6938750000        -0.3212220000 
H       -1.3417690000        -1.1667710000        -0.4991970000 
C       -1.4556640000        -2.0595770000         1.4734200000 
H       -0.8076720000        -2.6872140000         2.1328130000 
H       -1.6190620000        -1.1395460000         2.0820730000 
C       -2.7352790000        -2.7358370000         1.1959310000 
H       -2.9690960000        -3.4407140000         2.0307800000 
H       -2.6656760000        -3.4098200000         0.3142000000 
C       -3.8849780000        -1.7891660000         1.0361720000 
H       -4.0492550000        -1.2260290000         1.9776030000 
H       -3.6528040000        -1.0093690000         0.2872320000 
C       -5.1160880000        -2.5475810000         0.6521800000 
H       -4.9096240000        -3.2000480000        -0.2241010000 
H       -5.3774210000        -3.2633220000         1.4651760000 
C       -6.2790300000        -1.6655490000         0.3821250000 
H       -5.9668210000        -0.8860190000        -0.3517310000 
H       -6.5159260000        -1.0786220000         1.3033930000 
C       -7.5397080000        -2.3054490000        -0.1022790000 
H       -7.3104520000        -2.7653870000        -1.1002500000 
H       -7.7450670000        -3.1993710000         0.5408140000 
C       -8.7809950000        -1.5220040000        -0.2236350000 
H       -8.6148430000        -0.6016970000        -0.8286030000 
H       -9.0824960000        -1.1318630000         0.7768350000 
C       -9.8913890000        -2.3345150000        -0.8020250000 
H       -9.5942520000        -2.7308750000        -1.7984460000 
H      -10.0553610000        -3.2565420000        -0.1976810000 
C      -11.1509490000        -1.5528650000        -0.9151180000 
H      -11.9288950000        -2.1651690000        -1.4394530000 
H      -10.9889700000        -0.6978550000        -1.6146080000 
C      -11.7723110000        -1.0446460000         0.3517110000 
H      -11.9588970000        -1.9231440000         1.0386060000 
H      -11.0430960000        -0.4057240000         0.9165140000 
C      -14.1831990000        -0.9315160000         0.2102060000 
C      -16.4849450000        -0.5002140000         0.5636300000 
H      -16.5044220000        -0.8137150000         1.6404750000 
H      -16.6338150000        -1.4377800000        -0.0301150000 
C      -17.5776990000         0.4755200000         0.2873620000 
H      -17.4567210000         0.8540350000        -0.7607280000 
H      -17.3462570000         1.3952300000         0.8918090000 
C      -19.0155270000         0.1036160000         0.4937580000 
H      -19.0726680000        -0.7680820000         1.1934300000 
H      -19.3892880000        -0.3265580000        -0.4686040000 
C      -19.9347990000         1.1757770000         0.9948350000 
H      -19.8908100000         1.2671160000         2.1091320000 
C      -19.5352330000         2.4707310000         0.3568160000 
C      -19.1729260000         3.6866040000         0.9165730000 
H      -18.8796080000         3.7366220000         1.9657690000 
C      -19.2047630000         4.8458080000         0.1481760000 
H      -18.9234360000         5.7991700000         0.5931300000 
C      -19.6028540000         4.7832410000        -1.1814380000 
H      -19.6360460000         5.6926230000        -1.7817100000 
C      -19.9685000000         3.5682440000        -1.7422190000 
H      -20.2882300000         3.5227010000        -2.7834400000 
C      -19.9332300000         2.4081370000        -0.9727710000 
H      -20.2138440000         1.4692960000        -1.4570420000 
N       18.8877490000         0.3199910000         0.0121010000 
H       18.7619650000         0.1990350000         1.0268780000 
N        7.8035140000        -0.4658410000        -1.1895880000 
H        8.0316160000        -1.3334710000        -1.6963440000 
N        0.5243050000        -0.9718870000         0.4154120000 
H        0.3847680000        -0.0264360000         0.7763500000 
N      -13.0210230000        -0.2971510000         0.2921940000 
H      -12.9437170000         0.6916110000         0.0314250000 
O       21.0347000000         0.7581860000         0.4542150000 
O       20.3117800000         0.9201010000        -1.6392660000 
O        6.2374920000         0.8531290000        -0.3900390000 
O        5.6911750000        -1.0929940000        -1.4774840000 
O        2.7382820000        -0.6444450000         0.5378290000 
O        1.7144800000        -2.6116710000        -0.1777430000 
O      -14.2794830000        -2.1563800000         0.5440810000 
O      -15.1530020000        -0.0812110000         0.3588250000 
C      -21.3247240000         0.6546710000         0.5847660000 
H      -21.5981090000        -0.2258430000         1.1776650000 
H      -22.0985060000         1.4132570000         0.7611240000 
H      -21.3923640000         0.3787310000        -0.4742060000 
