        1027
0 1
N       17.2905780000        -5.5556050000        -3.6704340000 
C       17.2863410000        -4.3408950000        -2.8051010000 
C       15.9245930000        -4.1452220000        -2.1458110000 
O       14.9449420000        -4.8012800000        -2.5052550000 
C       17.6261800000        -3.0971690000        -3.6336320000 
C       16.6418590000        -2.8257660000        -4.7650510000 
C       16.7628360000        -1.4245550000        -5.3349300000 
O       15.9513610000        -0.5527880000        -4.9492040000 
N       15.8704590000        -3.2354170000        -1.1793910000 
C       14.6277620000        -2.9327190000        -0.4807790000 
C       13.7777830000        -2.0503860000        -1.3970270000 
O       14.2390240000        -1.0132810000        -1.8736820000 
C       14.8936480000        -2.1835570000         0.8531920000 
O       15.8772110000        -2.8900900000         1.6203270000 
C       13.6119100000        -2.0846610000         1.6724990000 
N       12.5521040000        -2.4880560000        -1.6693960000 
C       11.6486460000        -1.7356370000        -2.5315290000 
C       10.6984200000        -0.8632540000        -1.7208940000 
O       10.2936150000        -1.2253500000        -0.6156230000 
C       10.8409710000        -2.6851270000        -3.4204410000 
C       11.6804620000        -3.5996840000        -4.2992100000 
C       12.5479720000        -2.8191670000        -5.2698620000 
C       13.3565370000        -3.7507150000        -6.1563040000 
N       14.2223660000        -2.9920520000        -7.1022870000 
N       10.3711570000         0.3005670000        -2.2694260000 
C        9.4615140000         1.2379750000        -1.6255870000 
C        8.4191170000         1.6985170000        -2.6323630000 
O        8.6438000000         1.6523810000        -3.8415410000 
C       10.2173480000         2.4614750000        -1.0974440000 
C       11.2063340000         2.1416100000        -0.0198270000 
C       10.8140330000         2.1026130000         1.3142320000 
C       12.5297740000         1.8576280000        -0.3375310000 
C       11.7241120000         1.7813640000         2.3164970000 
C       13.4513880000         1.5341710000         0.6554570000 
C       13.0473620000         1.4963030000         1.9863110000 
N        7.2651260000         2.1092180000        -2.1251060000 
C        6.1909040000         2.6075780000        -2.9674680000 
C        5.6080940000         3.8426430000        -2.2977100000 
O        5.5137980000         3.9069510000        -1.0717390000 
C        5.0698000000         1.5500720000        -3.1950900000 
C        5.5663040000         0.4315870000        -4.1150120000 
C        4.5877430000         0.9780310000        -1.8664240000 
N        5.2788780000         4.8486590000        -3.0991060000 
C        4.7008790000         6.0758600000        -2.5689440000 
C        3.1928390000         6.1028220000        -2.8032710000 
O        2.6925140000         5.5455690000        -3.7854320000 
C        5.3725860000         7.3060580000        -3.1834360000 
C        5.3009620000         7.3801410000        -4.6995050000 
C        5.9803380000         8.6163570000        -5.2438130000 
O        5.6942700000         9.7328430000        -4.8115400000 
N        6.8942390000         8.4244560000        -6.1874390000 
N        2.4816020000         6.7686040000        -1.8981190000 
C        1.0338730000         6.8635420000        -1.9581030000 
C        0.5096900000         7.9626520000        -2.8606460000 
O        0.8645770000         9.1321400000        -2.7120580000 
C        0.4721570000         7.0284940000        -0.5646050000 
N       -0.3598010000         7.5645140000        -3.7860660000 
C       -0.9949780000         8.4783970000        -4.7303420000 
C       -2.2366270000         9.0805260000        -4.0848920000 
O       -2.5287680000        10.2627460000        -4.2673370000 
C       -1.3928720000         7.7287160000        -6.0049770000 
C       -0.2750570000         7.2116520000        -6.9138780000 
C       -0.8188140000         6.1900360000        -7.8938170000 
C        0.3597810000         8.3781540000        -7.6487220000 
N       -2.9577660000         8.2571740000        -3.3213010000 
C       -4.1805710000         8.6851890000        -2.6407240000 
C       -4.2302720000         8.1458550000        -1.2113040000 
O       -3.4458520000         7.2710350000        -0.8327680000 
C       -5.4249090000         8.1723060000        -3.3831530000 
C       -5.3430510000         8.2888900000        -4.8784740000 
C       -4.8087780000         7.2464530000        -5.6389080000 
C       -5.7963170000         9.4330990000        -5.5268230000 
C       -4.7270260000         7.3425990000        -7.0186940000 
C       -5.7209400000         9.5414170000        -6.9070840000 
C       -5.1846400000         8.4945170000        -7.6574690000 
N       -5.1657850000         8.6760620000        -0.4289710000 
C       -5.3724500000         8.2427790000         0.9486360000 
C       -6.1104870000         6.9108660000         0.9086160000 
O       -7.0487010000         6.7489940000         0.1256350000 
C       -6.2444140000         9.2492920000         1.7142700000 
C       -5.5011320000        10.5174340000         2.0958950000 
O       -4.4201150000        10.7894430000         1.5371690000 
N       -5.6900730000         5.9617590000         1.7421560000 
C       -6.3441210000         4.6601330000         1.7993450000 
C       -6.8840860000         4.3371770000         3.1885790000 
O       -6.1158540000         4.0991550000         4.1218680000 
C       -5.3994780000         3.5452100000         1.3412990000 
C       -6.0038500000         2.1710770000         1.4318060000 
C       -7.2401030000         1.9030360000         0.8480910000 
C       -5.3593710000         1.1572800000         2.1355040000 
C       -7.8227110000         0.6477200000         0.9688460000 
C       -5.9343010000        -0.1048230000         2.2635390000 
C       -7.1683790000        -0.3598920000         1.6798710000 
N       -8.2116180000         4.3430110000         3.3121740000 
C       -8.8981570000         4.0289900000         4.5670670000 
C       -9.5047320000         2.6284090000         4.4390950000 
O      -10.4699490000         2.4302740000         3.7018830000 
C      -10.0102600000         5.0510210000         4.8545540000 
C       -9.4708530000         6.4437650000         5.1272320000 
O       -9.4039530000         7.2825130000         4.2290920000 
N       -9.0922790000         6.6988630000         6.3735690000 
N       -8.9222650000         1.6356840000         5.1318190000 
C       -9.3722000000         0.2428340000         5.1144010000 
C      -10.8070880000         0.0050630000         5.5712350000 
O      -11.3253370000         0.7128830000         6.4351250000 
C       -8.3732010000        -0.4415850000         6.0450680000 
C       -7.1310460000         0.3477720000         5.8239280000 
C       -7.6684000000         1.7533720000         5.8896280000 
N      -11.4473150000        -0.9813860000         4.9488800000 
C      -12.8185650000        -1.3591140000         5.2792960000 
C      -12.8047260000        -2.7301150000         5.9569940000 
O      -13.7815180000        -3.1352540000         6.5877430000 
C      -13.6936430000        -1.3924840000         4.0178010000 
C      -13.8447390000        -0.0459890000         3.3037720000 
C      -14.5041600000         1.0205200000         4.1688980000 
O      -15.6546960000         0.8751490000         4.5856130000 
N      -13.7760530000         2.1034400000         4.4356290000 
N      -11.6827570000        -3.4328620000         5.8170270000 
C      -11.4952800000        -4.7494160000         6.4122250000 
C      -10.1967780000        -4.7797400000         7.2120440000 
O       -9.3384620000        -3.9079270000         7.0549820000 
C      -11.4481590000        -5.8304060000         5.3347000000 
C      -12.7843290000        -6.1235820000         4.6711190000 
C      -12.6811230000        -7.2031410000         3.6039140000 
O      -13.5141280000        -7.1944760000         2.6714250000 
N      -10.0579730000        -5.7907250000         8.0667570000 
C       -8.8674190000        -5.9449810000         8.8955240000 
C       -7.7308150000        -6.5730770000         8.1041010000 
O       -7.9576570000        -7.2936800000         7.1291900000 
C       -9.1756130000        -6.7984440000        10.1283650000 
O       -9.5089800000        -8.1266350000         9.7614840000 
N       -6.5059280000        -6.3050080000         8.5443380000 
C       -5.3364610000        -6.8371890000         7.8683770000 
C       -4.8714300000        -5.9415320000         6.7359750000 
O       -3.9513260000        -6.2949380000         5.9980260000 
N       -5.5063170000        -4.7794550000         6.6077540000 
C       -5.1752370000        -3.8184120000         5.5631440000 
C       -4.3738310000        -2.6418710000         6.1142860000 
O       -4.6145830000        -2.1834520000         7.2337980000 
C       -6.4520720000        -3.3185600000         4.8759550000 
C       -7.2045190000        -4.4089640000         4.1129610000 
C       -8.5440310000        -3.9531420000         3.5428570000 
O       -9.0686180000        -2.8976800000         3.9578390000 
N       -3.4437540000        -2.1428370000         5.3017910000 
C       -2.5818160000        -1.0262520000         5.6833470000 
C       -3.1343030000         0.3554600000         5.3341000000 
O       -3.2685490000         0.7044630000         4.1614880000 
C       -1.2014310000        -1.1939680000         5.0418650000 
C       -0.1517840000        -0.1555320000         5.4365420000 
C        0.1873750000        -0.3019240000         6.9157010000 
C        1.0875320000        -0.3322940000         4.5808730000 
N       -3.4212710000         1.1495900000         6.3602150000 
C       -3.9311300000         2.5028770000         6.1629960000 
C       -2.7699450000         3.4656240000         5.9387410000 
O       -1.7119010000         3.3247860000         6.5530110000 
C       -4.7424410000         2.9426780000         7.3700280000 
N       -2.9622140000         4.4249080000         5.0389210000 
C       -1.9414570000         5.4287100000         4.7449910000 
C       -2.5204710000         6.6768690000         4.0962100000 
O       -3.6932950000         6.7074570000         3.7129830000 
C       -0.8086120000         4.8469940000         3.8787900000 
C       -1.2661050000         4.2222250000         2.5878440000 
C       -1.7737220000         5.0030510000         1.5497100000 
C       -1.1485290000         2.8471960000         2.3960960000 
C       -2.1555260000         4.4227440000         0.3379690000 
C       -1.5236680000         2.2533400000         1.1898320000 
C       -2.0293390000         3.0418350000         0.1578950000 
N       -1.7032800000         7.7211740000         4.0224320000 
C       -2.1108040000         8.9801440000         3.4144120000 
C       -1.3142550000         9.2078940000         2.1357470000 
O       -0.2844970000         8.5684640000         1.9126290000 
C       -1.9064360000        10.1497230000         4.3847080000 
C       -2.7272840000        10.0361350000         5.6620370000 
C       -2.8475660000        11.3624930000         6.3983400000 
C       -3.8166530000        11.2396640000         7.5716080000 
N       -4.1033180000        12.5358820000         8.2591310000 
N       -1.8166600000        10.0917300000         1.2796180000 
C       -1.1399320000        10.4134600000         0.0318180000 
C        0.2167270000        11.0105630000         0.3704400000 
O        0.3159700000        11.8929850000         1.2232120000 
C       -1.9643210000        11.4163230000        -0.7795590000 
C       -1.2363080000        11.9987350000        -1.9855590000 
C       -2.1284220000        12.9597300000        -2.7461370000 
N       -2.6485150000        14.0317060000        -1.8992250000 
C       -1.9284610000        15.0586100000        -1.4567180000 
N       -0.6416090000        15.1613580000        -1.7761600000 
N       -2.5023620000        16.0013770000        -0.7162200000 
N        1.2595950000        10.5028020000        -0.2734220000 
C        2.5875600000        11.0176790000        -0.0207450000 
C        3.4304970000        10.0791560000         0.8134650000 
O        4.6598830000        10.1336570000         0.7487930000 
N        2.7767700000         9.2140260000         1.5850130000 
C        3.4778310000         8.2554490000         2.4325690000 
C        4.2708680000         7.2441460000         1.6182380000 
O        3.8702110000         6.8612450000         0.5197320000 
C        2.4992490000         7.5118000000         3.3438770000 
C        1.8844240000         8.4065850000         4.3954330000 
O        1.0189130000         7.9185100000         5.1528000000 
N        5.4181050000         6.8443560000         2.1498050000 
C        6.2688220000         5.8649190000         1.4914300000 
C        6.1286600000         4.5589380000         2.2639870000 
O        6.3600710000         4.5075760000         3.4749040000 
C        7.7493660000         6.3145830000         1.4677440000 
C        8.6073120000         5.2658440000         0.7934640000 
C        7.8871720000         7.6503810000         0.7455200000 
N        5.6919600000         3.5205360000         1.5642780000 
C        5.4926580000         2.2109670000         2.1671570000 
C        6.6039930000         1.2471600000         1.7587960000 
O        7.0366900000         1.2308630000         0.6066850000 
C        4.1198210000         1.5961430000         1.7432280000 
C        2.9587130000         2.5016580000         2.1596330000 
C        3.9292940000         0.2227800000         2.3558200000 
C        2.5975080000         3.5549210000         1.1351980000 
N        7.0906080000         0.4722880000         2.7198230000 
C        8.1201460000        -0.5170210000         2.4335640000 
C        7.3592360000        -1.6729560000         1.8101630000 
O        6.2638360000        -2.0006510000         2.2530300000 
C        8.7951970000        -1.0192460000         3.7083890000 
O        9.3556810000         0.0867080000         4.4208810000 
C        9.8919830000        -1.9995000000         3.3643230000 
N        7.9176740000        -2.2816680000         0.7738910000 
C        7.2279560000        -3.3805130000         0.1210740000 
C        7.7239560000        -4.7399360000         0.5931120000 
O        8.8867850000        -5.0980910000         0.3913030000 
C        7.3478800000        -3.2558750000        -1.4008400000 
C        6.1970490000        -3.8687840000        -2.2032530000 
C        4.8698880000        -3.2690660000        -1.7476110000 
C        6.4187270000        -3.6278120000        -3.6888700000 
N        6.8274190000        -5.4846570000         1.2350360000 
C        7.1337150000        -6.8172010000         1.7459290000 
C        6.8403080000        -7.8800200000         0.6830670000 
O        7.7196250000        -8.6679640000         0.3220650000 
C        6.3003340000        -7.1239150000         3.0113960000 
C        6.5016910000        -6.0183630000         4.0488070000 
C        6.6999700000        -8.4692830000         3.5956860000 
C        5.5991660000        -6.1287010000         5.2488240000 
N        5.6094670000        -7.8750140000         0.1704240000 
C        5.1724850000        -8.8342250000        -0.8455410000 
C        4.4785500000        -8.1542110000        -2.0167290000 
O        4.0845520000        -6.9902350000        -1.9377520000 
C        4.1812370000        -9.8412820000        -0.2481390000 
C        4.7640580000       -10.6375740000         0.9001090000 
O        4.5945100000       -10.2787580000         2.0676150000 
N        5.4322580000       -11.7383380000         0.5800380000 
N        4.2881090000        -8.9319390000        -3.0806660000 
C        3.6167560000        -8.4908050000        -4.3031530000 
C        2.7827390000        -9.6545510000        -4.8340760000 
O        2.1507110000        -9.5517860000        -5.8883230000 
C        4.6348880000        -8.0851120000        -5.3668050000 
C        4.5474830000        -6.6359340000        -5.7889700000 
C        5.1303630000        -6.4487760000        -7.1727150000 
C        6.2524490000        -5.4316370000        -7.1713880000 
N        6.8048680000        -5.2440540000        -8.5396450000 
N        2.8087290000       -10.7573370000        -4.0848310000 
C        2.1005800000       -12.0020240000        -4.3938700000 
C        0.8086520000       -11.8059380000        -5.1840160000 
O        0.6868540000       -12.2829660000        -6.3105050000 
C        1.8029780000       -12.7633670000        -3.0964960000 
C        3.0654700000       -13.1348420000        -2.3253380000 
O        3.9991030000       -12.3090270000        -2.2467480000 
N       -0.1521800000       -11.1074180000        -4.5805790000 
C       -1.4314800000       -10.8223140000        -5.2235940000 
C       -1.2383080000        -9.5809610000        -6.1024060000 
O       -0.8285200000        -8.5245850000        -5.6103020000 
C       -2.5058010000       -10.5634390000        -4.1500100000 
C       -3.9252980000       -10.4822790000        -4.7204510000 
O       -4.0984880000       -10.1254790000        -5.9032390000 
N       -1.5279480000        -9.6934670000        -7.4148290000 
C       -1.3883580000        -8.5971380000        -8.3852310000 
C       -2.2256640000        -7.3371280000        -8.0878220000 
O       -2.0221160000        -6.2855570000        -8.7016120000 
C       -1.7901630000        -9.2599670000        -9.7060970000 
C       -2.7556090000       -10.3343820000        -9.2670970000 
C       -2.0248170000       -10.9100910000        -8.0779340000 
N       -3.1261410000        -7.4395170000        -7.1156540000 
C       -3.9919490000        -6.3221100000        -6.7360930000 
C       -3.7609870000        -5.8570690000        -5.3041840000 
O       -3.9926560000        -4.6932810000        -4.9772170000 
C       -5.4618890000        -6.7137030000        -6.9139570000 
C       -5.8147760000        -7.0196650000        -8.3555320000 
O       -6.0687200000        -8.1701860000        -8.7095100000 
N       -5.8202790000        -5.9899710000        -9.1998720000 
N       -3.3298610000        -6.7741460000        -4.4442550000 
C       -3.0819630000        -6.4509670000        -3.0471970000 
C       -1.6501790000        -6.7743020000        -2.6763090000 
O       -1.2172890000        -7.9265890000        -2.7377410000 
C       -4.0532360000        -7.2058790000        -2.1310200000 
C       -5.4746460000        -6.7564950000        -2.2788730000 
C       -6.3815960000        -7.1985490000        -3.2016050000 
C       -6.1386250000        -5.7434360000        -1.5157670000 
N       -7.5663450000        -6.5150220000        -3.0652690000 
C       -7.4480750000        -5.6182960000        -2.0383300000 
C       -5.7649120000        -4.9270050000        -0.4418620000 
C       -8.3765290000        -4.7078770000        -1.5239800000 
C       -6.6907670000        -4.0214840000         0.0699880000 
C       -7.9807720000        -3.9214270000        -0.4720120000 
N       -0.9044220000        -5.7353190000        -2.3323380000 
C        0.4853930000        -5.8968800000        -1.9456460000 
C        0.6085620000        -5.7472140000        -0.4407470000 
O       -0.2261080000        -5.1034800000         0.1920300000 
C        1.3453400000        -4.8424090000        -2.6416940000 
C        1.4086020000        -4.9863650000        -4.1338990000 
C        1.0081780000        -6.0614510000        -4.8772130000 
C        1.9363750000        -4.0333450000        -5.0618330000 
N        1.2599700000        -5.8372450000        -6.2114590000 
C        1.8296810000        -4.5998160000        -6.3521820000 
C        2.4928200000        -2.7528950000        -4.9266310000 
C        2.2611600000        -3.9304370000        -7.5017500000 
C        2.9194540000        -2.0880440000        -6.0703660000 
C        2.8028020000        -2.6793630000        -7.3395860000 
N        1.6319460000        -6.3653850000         0.1362740000 
C        1.8478280000        -6.2598420000         1.5716360000 
C        3.0244220000        -5.3342680000         1.8802510000 
O        4.1145260000        -5.4920390000         1.3282070000 
C        2.0578760000        -7.6347470000         2.2066300000 
C        2.1915330000        -7.5650380000         3.7198890000 
C        2.0390750000        -8.9013310000         4.4050450000 
O        1.4772540000        -8.9179830000         5.5174270000 
N        2.7870530000        -4.3656080000         2.7592020000 
C        3.8279390000        -3.4245630000         3.1191750000 
C        3.7926690000        -2.9554030000         4.5601450000 
O        2.8534760000        -3.2519190000         5.3031810000 
N        4.8159240000        -2.1904720000         4.9388280000 
C        4.9483040000        -1.6679290000         6.2935550000 
C        5.1252670000        -0.1445920000         6.3074400000 
O        5.8864300000         0.4117620000         5.5105810000 
C        6.1417890000        -2.3464820000         6.9877790000 
C        6.2760920000        -2.0645250000         8.4866710000 
C        6.0590590000        -3.3006030000         9.3535330000 
O        6.2584940000        -4.4367570000         8.9105000000 
N        5.6553000000        -3.0804200000        10.5982850000 
N        4.4013800000         0.5156890000         7.2098150000 
C        4.4657680000         1.9660040000         7.3748980000 
C        4.6435550000         2.2272670000         8.8715540000 
O        3.6723940000         2.4202570000         9.6074950000 
C        3.1881530000         2.6282980000         6.8498410000 
C        3.1614050000         4.1606870000         6.7665360000 
C        4.3080050000         4.6597130000         5.8964310000 
C        1.8230900000         4.6272130000         6.2083070000 
N        5.9087350000         2.2201480000         9.2924450000 
C        6.3428500000         2.3948120000        10.6817350000 
C        5.9933810000         1.1408020000        11.4960010000 
O        6.4838910000         0.0547390000        11.1899380000 
C        5.7775330000         3.6790120000        11.3210180000 
C        6.5185670000         4.0778010000        12.6099780000 
O        7.6878220000         3.7427410000        12.8060130000 
N        5.8305240000         4.7922980000        13.4858070000 
N        5.1174400000         1.2741320000        12.4882610000 
C        4.7272690000         0.1465430000        13.3365120000 
C        3.6813080000        -0.7721630000        12.7014880000 
O        3.5770950000        -1.9499280000        13.0562160000 
C        4.1955590000         0.6710700000        14.6735270000 
C        5.1658440000         1.6207890000        15.3566910000 
O        6.3834030000         1.4412550000        15.2834460000 
N        4.6309640000         2.6424160000        16.0152650000 
N        2.9329390000        -0.2273370000        11.7461590000 
C        1.8629890000        -0.9542320000        11.0679850000 
C        2.2676920000        -1.8356920000         9.8874020000 
O        3.1460990000        -1.4857350000         9.1000480000 
C        0.7923880000         0.0392020000        10.6158410000 
C        0.2974450000         0.9379630000        11.7266780000 
C       -0.6151990000         2.0273630000        11.2031810000 
N       -0.9685420000         2.9689480000        12.2625740000 
C       -1.8973730000         3.9138890000        12.1512810000 
N       -2.5804410000         4.0505360000        11.0207710000 
N       -2.1437330000         4.7246650000        13.1726150000 
N        1.5998950000        -2.9818440000         9.7740800000 
C        1.8270110000        -3.9318610000         8.6895370000 
C        0.4699640000        -4.3789220000         8.1461420000 
O       -0.5091930000        -4.4584450000         8.8908800000 
C        2.6314470000        -5.1498090000         9.1651530000 
C        2.8813190000        -6.1887040000         8.0684050000 
C        3.9036820000        -7.2334180000         8.4792520000 
N        4.0337790000        -8.2942890000         7.4794010000 
C        5.0957620000        -9.0868380000         7.3465930000 
N        6.1450500000        -8.9441210000         8.1502130000 
N        5.1089490000       -10.0343930000         6.4171500000 
N        0.4118840000        -4.6345700000         6.8413800000 
C       -0.8297430000        -5.0702040000         6.2292260000 
C       -0.7950230000        -5.0097250000         4.7184050000 
O        0.2535950000        -4.7514980000         4.1213870000 
N       -1.9406220000        -5.2723290000         4.0995130000 
C       -2.0539780000        -5.2400450000         2.6471420000 
C       -2.7871350000        -3.9951240000         2.1524050000 
O       -3.6049210000        -3.4082320000         2.8641110000 
C       -2.7544810000        -6.4995430000         2.0898670000 
C       -4.1351710000        -6.6747570000         2.7337040000 
C       -1.8566590000        -7.7189890000         2.2719290000 
C       -4.9136430000        -7.8569370000         2.2102610000 
N       -2.5073610000        -3.6235290000         0.9096930000 
C       -3.1104750000        -2.4450240000         0.3027170000 
C       -3.2958000000        -2.6275660000        -1.2104100000 
O       -2.6436940000        -3.4724510000        -1.8377480000 
C       -2.2199830000        -1.2238510000         0.5810540000 
C       -0.8060380000        -1.3822080000         0.0825410000 
C        0.1584030000        -2.0000450000         0.8716150000 
C       -0.4492580000        -0.9498610000        -1.1927170000 
C        1.4586140000        -2.1907570000         0.3946160000 
C        0.8429570000        -1.1363590000        -1.6754870000 
C        1.7983780000        -1.7570180000        -0.8818660000 
N       -4.2322300000        -1.8718840000        -1.8056180000 
C       -4.5206020000        -1.9274940000        -3.2433970000 
C       -3.3517610000        -1.3895190000        -4.0834820000 
O       -2.9467260000        -0.2391490000        -3.9356840000 
C       -5.7813840000        -1.0634530000        -3.3726060000 
C       -5.6941900000        -0.1230850000        -2.2062830000 
C       -5.1957180000        -1.0078280000        -1.1060630000 
N       -2.8218690000        -2.2326690000        -4.9649220000 
C       -1.6893580000        -1.8769610000        -5.8192890000 
C       -1.8987920000        -0.6755210000        -6.7385980000 
O       -0.9339900000        -0.1344920000        -7.2760500000 
C       -1.2549500000        -3.0855570000        -6.6548400000 
O       -2.2613810000        -3.4745630000        -7.5737590000 
N       -3.1532250000        -0.2728660000        -6.9268470000 
C       -3.4811550000         0.8555790000        -7.7915710000 
C       -3.4648310000         2.2002090000        -7.0562030000 
O       -3.7568480000         3.2470100000        -7.6404120000 
C       -4.8371810000         0.6233430000        -8.4839970000 
C       -6.0052510000         0.5297730000        -7.5029940000 
O       -5.8567590000         0.0616610000        -6.3714080000 
N       -7.1776970000         0.9750950000        -7.9443820000 
N       -3.1325170000         2.1554030000        -5.7683930000 
C       -3.0571040000         3.3545690000        -4.9365750000 
C       -1.6113980000         3.8233960000        -4.7408300000 
O       -1.3707080000         4.8620190000        -4.1205980000 
C       -3.7054690000         3.1033630000        -3.5698460000 
C       -5.1827360000         3.4075490000        -3.5245070000 
C       -6.0808220000         2.7597200000        -4.3820610000 
C       -5.6857470000         4.3533210000        -2.6353690000 
C       -7.4438850000         3.0557710000        -4.3536180000 
C       -7.0477490000         4.6580390000        -2.6012020000 
C       -7.9199650000         4.0085140000        -3.4641310000 
O       -9.2554060000         4.3397070000        -3.4554120000 
N       -0.6568500000         3.0623730000        -5.2699440000 
C        0.7491380000         3.4094630000        -5.1277960000 
C        1.5454020000         3.3615920000        -6.4291580000 
O        1.1285020000         2.7575410000        -7.4184730000 
C        1.4699680000         2.4926750000        -4.0875510000 
C        0.7363260000         2.5118130000        -2.7523690000 
C        1.6114490000         1.0660610000        -4.6205800000 
N        2.7017880000         4.0148670000        -6.3968710000 
C        3.6327610000         4.0735080000        -7.5160160000 
C        5.0304130000         3.8163080000        -6.9441920000 
O        5.2751660000         4.0602200000        -5.7611080000 
N        5.9629540000         3.3070970000        -7.7675530000 
C        7.3376950000         3.0119410000        -7.3427950000 
C        8.0729390000         4.2543170000        -6.8378440000 
O        8.3062260000         5.1947330000        -7.5977340000 
C        7.9787940000         2.4677980000        -8.6232150000 
C        6.8091590000         1.8796660000        -9.3721260000 
C        5.7565310000         2.9348480000        -9.1785420000 
N        8.4073310000         4.2645880000        -5.5497840000 
C        9.1192000000         5.3946250000        -4.9570450000 
C       10.6288200000         5.2227670000        -5.0647990000 
O       11.3390030000         6.1448830000        -5.4688740000 
C        8.7328740000         5.5834090000        -3.4878400000 
C        9.5067890000         6.6888250000        -2.7987360000 
C        9.1418370000         8.0222270000        -2.9555000000 
C       10.6134580000         6.3996330000        -1.9964360000 
C        9.8573270000         9.0453980000        -2.3328200000 
C       11.3360150000         7.4148210000        -1.3699680000 
C       10.9509550000         8.7331470000        -1.5421060000 
O       11.6512270000         9.7416780000        -0.9197700000 
N       11.1132940000         4.0470430000        -4.6762570000 
C       12.5418100000         3.7555030000        -4.7222700000 
C       13.1000580000         3.7730300000        -6.1492890000 
O       12.4399990000         3.2593030000        -7.0894890000 
C       12.8484840000         2.4153000000        -4.0275750000 
C       12.2660260000         1.2134290000        -4.7617980000 
O       11.0652900000         1.1479820000        -5.0270930000 
N       13.1227800000         0.2509790000        -5.0851670000 
N       -9.9030500000         9.3512480000        -6.4137100000 
C       -9.3162150000         8.0776390000        -5.9345350000 
C       -9.9859570000         6.9145830000        -6.6627780000 
O      -11.2128280000         6.8143170000        -6.6802290000 
C       -9.6049200000         7.9841550000        -4.4375860000 
C       -9.9621140000         9.4340490000        -4.0761010000 
C      -10.6593000000         9.9903760000        -5.3223420000 
N       -9.1928090000         6.0110390000        -7.2629110000 
C       -9.7012810000         4.8507220000        -7.9948040000 
C      -10.4394850000         3.8741110000        -7.0766900000 
O      -10.3258710000         3.9513720000        -5.8522770000 
C       -8.4278110000         4.2382870000        -8.5861690000 
C       -7.3958820000         4.5617090000        -7.5742360000 
C       -7.7218620000         5.9964240000        -7.2121520000 
N      -11.2467470000         2.9718640000        -7.6577230000 
C      -12.0101280000         1.9773040000        -6.8994280000 
C      -11.0943190000         0.9201700000        -6.2990550000 
O      -10.0757740000         0.5508220000        -6.8909910000 
C      -12.9230800000         1.3611540000        -7.9645140000 
C      -13.0279840000         2.4285050000        -9.0108100000 
C      -11.6207070000         2.9414960000        -9.0811620000 
N      -11.4464030000         0.4644300000        -5.1050860000 
C      -10.6807730000        -0.5701090000        -4.4303570000 
C      -11.2813410000        -1.9038020000        -4.8763390000 
O      -12.4892860000        -2.1096580000        -4.7524310000 
C      -10.7793630000        -0.4336630000        -2.8901780000 
C       -9.9464770000        -1.5065660000        -2.2063430000 
C      -10.3112530000         0.9488600000        -2.4532160000 
N      -10.4513530000        -2.8157230000        -5.4213480000 
C      -10.9433510000        -4.0913220000        -5.9242400000 
C      -11.5734430000        -5.0180000000        -4.8935190000 
O      -12.2384810000        -4.5557610000        -3.9691360000 
C       -9.0385090000        -2.3761720000        -5.5660280000 
C       -8.2397740000        -3.6430000000        -5.5333840000 
C       -6.7744400000        -3.4831980000        -5.6621890000 
C       -7.5649160000        -4.0111530000        -6.7995000000 
N      -11.3796670000        -6.3423240000        -5.0297650000 
C      -11.9262570000        -7.3603520000        -4.1192340000 
C      -11.4095750000        -7.3117440000        -2.6723040000 
O      -10.4297550000        -8.0232510000        -2.3298380000 
C      -11.5579700000        -8.6693510000        -4.8212330000 
C      -10.2750410000        -8.3271310000        -5.5263430000 
C      -10.5964640000        -6.9765260000        -6.1103520000 
H       18.6495750000        -3.2291500000        -4.0508750000 
H       17.6856120000        -2.2095460000        -2.9675590000 
H       15.5939020000        -2.9522940000        -4.3907690000 
H       16.7388970000        -3.5862910000        -5.5705390000 
H       18.0783050000        -4.4960170000        -2.0232830000 
H       16.5401550000        -5.5078930000        -4.3496240000 
H       17.1448720000        -6.3875760000        -3.1155770000 
H       15.3839250000        -1.1997880000         0.6829130000 
H       13.8201750000        -1.6509990000         2.6605730000 
H       13.1352130000        -3.0572530000         1.8359650000 
H       12.8680940000        -1.4306710000         1.1895020000 
H       15.5285670000        -3.7498000000         1.9238810000 
H       14.1033290000        -3.9084790000        -0.2614120000 
H       16.6651790000        -2.6610320000        -0.9126910000 
H       10.1540450000        -2.0834940000        -4.0568380000 
H       10.1719770000        -3.3089650000        -2.7826900000 
H       11.0138640000        -4.2964130000        -4.8485160000 
H       12.3229910000        -4.2534470000        -3.6655950000 
H       13.2504310000        -2.1872890000        -4.6815320000 
H       11.9119470000        -2.1529040000        -5.8877900000 
H       12.7076550000        -4.4386730000        -6.7375110000 
H       14.0228380000        -4.4016880000        -5.5448830000 
H       13.7148710000        -2.6891600000        -7.9161100000 
H       14.6380590000        -2.1875190000        -6.6651650000 
H       12.2898470000        -1.0668570000        -3.1888920000 
H       12.1299730000        -3.2931230000        -1.2088840000 
H        9.4742410000         3.2001820000        -0.7103340000 
H       10.7223900000         2.9839080000        -1.9407700000 
H       12.8602200000         1.8575830000        -1.3767060000 
H        9.7769630000         2.3229890000         1.5791240000 
H       14.4807580000         1.3058280000         0.3847380000 
H       11.4127090000         1.7736520000         3.3595000000 
H       13.7627430000         1.2478610000         2.7673030000 
H        8.9534100000         0.7231180000        -0.7453990000 
H       10.5624430000         0.5388490000        -3.2554390000 
H        4.2168520000         2.0735280000        -3.7023550000 
H        4.8086800000        -0.3509760000        -4.2314040000 
H        5.8132830000         0.8100930000        -5.1132370000 
H        6.4745650000        -0.0413710000        -3.7201470000 
H        3.7322130000         0.3074110000        -2.0032790000 
H        5.3720770000         0.4073510000        -1.3510660000 
H        4.2681930000         1.7784300000        -1.1808480000 
H        6.6002930000         2.8740930000        -3.9893530000 
H        7.0377590000         2.0545790000        -1.1150560000 
H        6.4308840000         7.3505480000        -2.8441790000 
H        4.9132260000         8.2304870000        -2.7517220000 
H        4.2302010000         7.4094860000        -5.0187190000 
H        5.7017920000         6.4507750000        -5.1586050000 
H        7.3980960000         9.1940490000        -6.5948820000 
H        7.1641670000         7.5110180000        -6.5149150000 
H        4.8908150000         6.1046440000        -1.4425120000 
H        5.1931300000         4.7263070000        -4.1148280000 
H       -0.6301100000         7.0665680000        -0.5617660000 
H        0.7466180000         6.1866640000         0.0892970000 
H        0.8209500000         7.9393570000        -0.0585730000 
H        0.6572830000         5.8584760000        -2.3621260000 
H        2.8969770000         7.1743380000        -1.0499920000 
H       -2.0643000000         8.3895840000        -6.6001220000 
H       -2.0427890000         6.8654370000        -5.7223830000 
H        0.5060610000         6.7168120000        -6.2771930000 
H        1.1625510000         8.0468470000        -8.3164110000 
H       -0.3677770000         8.9201640000        -8.2637370000 
H        0.8009970000         9.1037760000        -6.9524490000 
H       -0.0301090000         5.7928840000        -8.5436550000 
H       -1.5937080000         6.6095770000        -8.5438840000 
H       -1.2624980000         5.3236560000        -7.3836820000 
H       -0.2872450000         9.3291440000        -4.9716890000 
H       -0.5476480000         6.5634340000        -3.9537900000 
H       -6.3263520000         8.7043670000        -3.0143900000 
H       -5.6041000000         7.1009730000        -3.1157350000 
H       -6.2104070000        10.2589960000        -4.9488730000 
H       -4.4548430000         6.3437420000        -5.1384130000 
H       -6.0830410000        10.4397310000        -7.4042370000 
H       -4.3045760000         6.5225580000        -7.6002090000 
H       -5.1202340000         8.5796110000        -8.7391610000 
H       -4.1895520000         9.8173640000        -2.6309300000 
H       -2.6891110000         7.2847110000        -3.1626850000 
H       -6.6548600000         8.7677670000         2.6385950000 
H       -7.1622680000         9.5093140000         1.1379210000 
H       -4.3597740000         8.1359330000         1.4470110000 
H       -5.8517120000         9.3330110000        -0.7836240000 
H       -4.4535320000         3.5886020000         1.9341370000 
H       -5.0744410000         3.7419710000         0.2930360000 
H       -7.7559450000         2.6766720000         0.2797270000 
H       -4.3854800000         1.3589800000         2.5950060000 
H       -8.7931310000         0.4531950000         0.5166010000 
H       -5.4061010000        -0.8781800000         2.8218760000 
H       -7.6346300000        -1.3357280000         1.7892080000 
H       -7.2122590000         4.6836080000         1.0585940000 
H       -4.8761240000         6.0600530000         2.3637540000 
H      -10.6496870000         4.6876410000         5.6853670000 
H      -10.7077010000         5.1054280000         3.9818590000 
H       -8.7163870000         7.5976940000         6.6249740000 
H       -9.1272500000         6.0239290000         7.1120340000 
H       -8.1451250000         4.0830380000         5.4075150000 
H       -8.8264690000         4.6152230000         2.5448760000 
H       -8.2744270000        -1.5237810000         5.8082370000 
H       -8.7124220000        -0.4185180000         7.1022680000 
H       -6.6494550000         0.1321910000         4.8443600000 
H       -6.3418620000         0.1419300000         6.5758960000 
H       -7.8769890000         2.0843060000         6.9315960000 
H       -6.9699570000         2.4889770000         5.4201680000 
H       -9.2475410000        -0.1407600000         4.0558000000 
H      -14.7109190000        -1.7482510000         4.3219540000 
H      -13.3130040000        -2.1446880000         3.3006860000 
H      -14.4841460000        -0.1828910000         2.4033920000 
H      -12.8600300000         0.2948190000         2.9229680000 
H      -14.1275270000         2.8267860000         5.0368800000 
H      -12.7797460000         2.1335870000         4.2588140000 
H      -13.2503080000        -0.6153740000         6.0214310000 
H      -10.9991030000        -1.5015230000         4.1924880000 
H      -11.0392440000        -6.7775930000         5.7576740000 
H      -10.7014820000        -5.5486690000         4.5575660000 
H      -13.2133980000        -5.2074920000         4.2027410000 
H      -13.5489950000        -6.4395320000         5.4161950000 
H      -12.3697560000        -4.9497780000         7.1112960000 
H      -10.8191310000        -3.0479400000         5.4229830000 
H      -10.0893880000        -6.4542970000        10.6567760000 
H       -8.3303460000        -6.8175700000        10.8387590000 
H       -8.7922530000        -8.5368140000         9.2251720000 
H       -8.5623870000        -4.9028910000         9.2336530000 
H      -10.6734140000        -6.6061970000         8.0668040000 
H       -5.5540440000        -7.8542190000         7.4367780000 
H       -4.4939240000        -6.9863810000         8.5896240000 
H       -6.3196720000        -5.7033600000         9.3415820000 
H       -6.1906120000        -2.4886430000         4.1801700000 
H       -7.1375170000        -2.8594160000         5.6317720000 
H       -7.4059620000        -5.2784360000         4.7829820000 
H       -6.5715160000        -4.8179460000         3.2922740000 
H       -4.5515050000        -4.3522610000         4.7718910000 
H       -6.2275840000        -4.4547110000         7.2464100000 
H       -1.3221810000        -1.1715740000         3.9330310000 
H       -0.8095150000        -2.2089510000         5.2709090000 
H       -0.5687560000         0.8735790000         5.2641150000 
H        0.9576320000         0.4217220000         7.2143450000 
H        0.5775780000        -1.3013730000         7.1426990000 
H       -0.6814080000        -0.1241620000         7.5561210000 
H        1.8511210000         0.4173930000         4.8210570000 
H        0.8634150000        -0.2371990000         3.5113920000 
H        1.5447480000        -1.3215170000         4.7332460000 
H       -2.4506820000        -1.0905330000         6.8119720000 
H       -3.2648210000        -2.5421280000         4.3694210000 
H       -5.2535910000         3.8950940000         7.1739280000 
H       -5.5033250000         2.2018710000         7.6447870000 
H       -4.1034930000         3.1009800000         8.2572230000 
H       -4.5977560000         2.4907080000         5.2397410000 
H       -3.1900240000         0.9118740000         7.3205670000 
H       -0.2825460000         4.0787130000         4.4993280000 
H       -0.0444800000         5.6240410000         3.6699470000 
H       -0.7739750000         2.2154300000         3.2022970000 
H       -1.8610310000         6.0841300000         1.6659950000 
H       -1.4034990000         1.1817190000         1.0595320000 
H       -2.5424960000         5.0554440000        -0.4623900000 
H       -2.3152970000         2.5885680000        -0.7879310000 
H       -1.4746210000         5.7326110000         5.7403740000 
H       -3.8599640000         4.5536220000         4.5522250000 
H       -2.1445420000        11.1006470000         3.8616020000 
H       -0.8288160000        10.2368620000         4.6425880000 
H       -2.2780240000         9.2695860000         6.3289060000 
H       -3.7392370000         9.6421430000         5.4257000000 
H       -3.1893770000        12.1567510000         5.7059540000 
H       -1.8522110000        11.6935280000         6.7545450000 
H       -3.4255020000        10.5350930000         8.3373660000 
H       -4.7933470000        10.8245650000         7.2385220000 
H       -3.2729240000        12.9272340000         8.6696150000 
H       -4.4977480000        13.2080720000         7.6247610000 
H       -3.2127500000         8.9139630000         3.1523550000 
H       -0.7063830000         7.6603580000         4.2690380000 
H       -2.2653090000        12.2483250000        -0.1036070000 
H       -2.9055880000        10.9284400000        -1.1056750000 
H       -0.8827670000        11.1921510000        -2.6657780000 
H       -0.3154860000        12.5413560000        -1.6610690000 
H       -2.9988470000        12.4354560000        -3.2074220000 
H       -1.5463640000        13.4158510000        -3.5893940000 
H       -3.4296030000        13.7232450000        -1.3214760000 
H       -3.4832460000        16.0459250000        -0.5279720000 
H       -1.9911320000        16.8180680000        -0.4356650000 
H       -0.1386890000        15.9931900000        -1.5481650000 
H       -1.0240490000         9.4572790000        -0.5644540000 
H       -2.5531370000        10.7494240000         1.5510040000 
H        2.5480740000        12.0160730000         0.4987570000 
H        3.1199010000        11.2092720000        -0.9920780000 
H        1.1719280000         9.8722930000        -1.0889500000 
H        2.9803600000         6.6417370000         3.8471310000 
H        1.6624780000         7.0700270000         2.7366010000 
H        4.2019890000         8.8578740000         3.0705100000 
H        1.7549950000         9.1280990000         1.5648250000 
H        8.0930140000         6.4368020000         2.5290390000 
H        8.9070360000         8.0445280000         0.8230090000 
H        7.2133670000         8.4206210000         1.1441890000 
H        7.6593010000         7.5626560000        -0.3252030000 
H        9.6483750000         5.6037400000         0.7036240000 
H        8.2503700000         5.0442430000        -0.2225130000 
H        8.6205500000         4.3237500000         1.3573980000 
H        5.9225920000         5.7357470000         0.4170020000 
H        5.7604590000         7.1714990000         3.0487450000 
H        4.1230940000         1.4978900000         0.6259930000 
H        2.9345140000        -0.1809580000         2.1236400000 
H        4.6590520000        -0.5027470000         1.9652670000 
H        4.0350640000         0.2391900000         3.4477950000 
H        3.1870170000         2.9850440000         3.1322020000 
H        2.0580130000         1.8785680000         2.3566040000 
H        2.4095660000         3.1192160000         0.1452740000 
H        1.6839910000         4.0934270000         1.4196360000 
H        3.3825850000         4.3110100000         0.9989960000 
H        5.4902670000         2.3327250000         3.2954340000 
H        5.5428800000         3.5513930000         0.5527050000 
H        8.0655290000        -1.4201360000         4.4519820000 
H       10.5141690000        -2.2073790000         4.2476990000 
H        9.4995340000        -2.9664100000         3.0168820000 
H       10.5665610000        -1.6281550000         2.5812820000 
H        9.9538940000         0.6038220000         3.8423200000 
H        8.8805020000        -0.0780050000         1.7229530000 
H        6.7293730000         0.4711080000         3.6822320000 
H        8.3084650000        -3.7136690000        -1.7270550000 
H        7.4343860000        -2.1790090000        -1.6687520000 
H        6.1674000000        -4.9746620000        -2.0182010000 
H        4.0651060000        -3.5324480000        -2.4475800000 
H        4.5663340000        -3.6547130000        -0.7655450000 
H        4.9215980000        -2.1750170000        -1.6899550000 
H        5.5996040000        -4.0540240000        -4.2827730000 
H        6.4626040000        -2.5575670000        -3.9265960000 
H        7.3491130000        -4.0872020000        -4.0393770000 
H        6.1199890000        -3.2844410000         0.3850690000 
H        8.8067410000        -1.9858960000         0.3567470000 
H        5.2152290000        -7.1604640000         2.7333180000 
H        6.5279430000        -9.2902390000         2.8848430000 
H        7.7591320000        -8.4982140000         3.8773480000 
H        6.1141900000        -8.7007610000         4.4911380000 
H        6.3702080000        -5.0187810000         3.5838470000 
H        7.5631540000        -6.0290260000         4.3844900000 
H        5.8714660000        -5.4024000000         6.0318580000 
H        5.6708900000        -7.1083490000         5.7420100000 
H        4.5460670000        -5.9569930000         5.0039720000 
H        8.2399810000        -6.8792070000         1.9791880000 
H        5.8515050000        -5.1963190000         1.3496530000 
H        3.7824640000       -10.5176330000        -1.0276850000 
H        3.2878460000        -9.2977010000         0.1434270000 
H        5.9130650000       -12.2747650000         1.2821710000 
H        5.6041120000       -12.0004780000        -0.3736390000 
H        6.0988440000        -9.3818100000        -1.2084160000 
H        4.9191690000        -7.1606750000         0.4285640000 
H        4.5004710000        -8.7338630000        -6.2668410000 
H        5.6693070000        -8.3056520000        -5.0245350000 
H        5.0525760000        -5.9914210000        -5.0364080000 
H        3.5000380000        -6.2836190000        -5.7637440000 
H        4.3322410000        -6.1359830000        -7.8799930000 
H        5.5082590000        -7.4027850000        -7.6008210000 
H        7.0937110000        -5.7875650000        -6.5305820000 
H        5.9002710000        -4.4698720000        -6.7317380000 
H        7.4843990000        -4.5024960000        -8.5618830000 
H        6.0806860000        -5.0388460000        -9.2069340000 
H        2.9229630000        -7.6287940000        -4.0608920000 
H        4.8328010000        -9.7958120000        -3.1690260000 
H        1.2081320000       -13.6781870000        -3.3263410000 
H        1.1560540000       -12.1613640000        -2.4159980000 
H        2.7795990000       -12.6299000000        -5.0553710000 
H        3.3170360000       -10.8287670000        -3.2006710000 
H       -2.2795250000        -9.5976390000        -3.6116470000 
H       -2.4562090000       -11.3411960000        -3.3598330000 
H       -1.7243110000       -11.7283860000        -5.8284930000 
H        0.1019160000       -10.4250570000        -3.8506740000 
H       -0.9078250000        -9.6780400000       -10.2285120000 
H       -2.2393940000        -8.5349800000       -10.4122680000 
H       -2.9598810000       -11.0818930000       -10.0539530000 
H       -3.7514190000        -9.9236590000        -8.9911280000 
H       -2.7042740000       -11.4910260000        -7.4168620000 
H       -1.1687850000       -11.5689020000        -8.3570810000 
H       -0.3121170000        -8.2568810000        -8.3964080000 
H       -6.1148960000        -5.9166820000        -6.4934530000 
H       -5.6909430000        -7.6225880000        -6.3091340000 
H       -5.9660860000        -6.1308780000       -10.1851140000 
H       -5.5207390000        -5.0676120000        -8.9341440000 
H       -3.7483040000        -5.4266320000        -7.3991790000 
H       -3.3789030000        -8.3558810000        -6.7290160000 
H       -3.7326980000        -7.0673600000        -1.0733070000 
H       -3.9778810000        -8.2991290000        -2.3092800000 
H       -6.2636550000        -7.9589830000        -3.9536960000 
H       -8.4351500000        -6.7558140000        -3.5010390000 
H       -4.7637830000        -5.0029270000        -0.0229700000 
H       -6.4150410000        -3.3919570000         0.9134660000 
H       -9.3754820000        -4.6363200000        -1.9493240000 
H       -8.6756750000        -3.1965440000        -0.0446690000 
H       -3.2894430000        -5.3307940000        -2.8973720000 
H       -2.9254360000        -7.6598280000        -4.7526410000 
H        2.3904660000        -4.8928690000        -2.2461150000 
H        0.9804510000        -3.8176210000        -2.3862230000 
H        0.5268560000        -6.9822910000        -4.5603070000 
H        1.0083960000        -6.4760000000        -6.9366910000 
H        2.5806880000        -2.2986890000        -3.9439810000 
H        3.3367260000        -1.0858260000        -5.9914470000 
H        2.1576330000        -4.3873960000        -8.4807930000 
H        3.1365600000        -2.1135840000        -8.2104540000 
H        0.8353690000        -6.9307900000        -2.2557960000 
H       -1.2922710000        -4.7842020000        -2.2469270000 
H        2.9674830000        -8.1307390000         1.7880070000 
H        1.2166060000        -8.3020080000         1.9240370000 
H        1.4360080000        -6.8655470000         4.1605200000 
H        3.1851060000        -7.1385080000         4.0084860000 
H        0.9024500000        -5.8123390000         2.0389730000 
H        2.4388320000        -6.7034670000        -0.4052750000 
H        3.7664820000        -2.5227500000         2.4442510000 
H        4.8474440000        -3.8550020000         2.8892430000 
H        1.9355800000        -4.3225180000         3.3381970000 
H        7.0814580000        -2.0567770000         6.4731030000 
H        6.0633340000        -3.4529660000         6.8342340000 
H        5.5827750000        -1.2575130000         8.8031530000 
H        7.2915590000        -1.6708090000         8.7116330000 
H        5.5232240000        -3.8289240000        11.2547230000 
H        5.5246670000        -2.1506550000        10.9613510000 
H        4.0078950000        -1.9458830000         6.8751670000 
H        5.5455120000        -1.9069260000         4.2711470000 
H        2.3283640000         2.3028440000         7.4802800000 
H        2.9794900000         2.2172460000         5.8357560000 
H        3.2817400000         4.5713510000         7.8007830000 
H        4.3187080000         4.1868350000         4.9032170000 
H        4.2539990000         5.7416350000         5.7391000000 
H        5.2899290000         4.4599780000         6.3389780000 
H        1.7296830000         5.7203380000         6.2444240000 
H        0.9759720000         4.2195290000         6.7805790000 
H        1.6952100000         4.3153050000         5.1655770000 
H        5.3440090000         2.3701780000         6.7819560000 
H        3.7904490000         0.0252480000         7.8775650000 
H        4.6786050000         3.6186100000        11.4392410000 
H        5.9141780000         4.5181100000        10.5958020000 
H        6.2630040000         5.1000320000        14.3439710000 
H        4.9041540000         5.1336130000        13.3251050000 
H        7.4786740000         2.4695230000        10.6913430000 
H        6.6623070000         1.9463060000         8.6554380000 
H        4.0351160000        -0.2034670000        15.3539610000 
H        3.1932780000         1.1216550000        14.5397520000 
H        5.2199680000         3.2775400000        16.5311240000 
H        3.6494720000         2.7643840000        16.1595610000 
H        5.6548140000        -0.4924630000        13.5268970000 
H        4.8090870000         2.1788130000        12.8218690000 
H       -0.0601390000        -0.5121240000        10.1602020000 
H        1.2030800000         0.6650000000         9.7832470000 
H        1.1563070000         1.3954110000        12.2637250000 
H       -0.2309790000         0.3371260000        12.4991940000 
H       -1.5620100000         1.6016400000        10.7784550000 
H       -0.1431630000         2.5752690000        10.3445590000 
H       -0.2252450000         3.1009740000        12.9435720000 
H       -3.3354750000         4.7026010000        10.9739230000 
H       -1.7450100000         4.6188770000        14.0846300000 
H       -2.8946140000         5.3920370000        13.1305950000 
H        1.4084060000        -1.6341460000        11.8635270000 
H        3.2174760000         0.6429700000        11.2797190000 
H        2.1261050000        -5.6277580000        10.0279390000 
H        3.6147950000        -4.7911570000         9.5548690000 
H        3.2351900000        -5.6759260000         7.1454730000 
H        1.9241420000        -6.6781180000         7.7882450000 
H        3.6421350000        -7.6829210000         9.4672140000 
H        4.9165990000        -6.7569730000         8.6312210000 
H        3.1592800000        -8.5264830000         7.0103500000 
H        6.9702710000        -9.4819430000         7.9890570000 
H        4.5027400000       -10.0311550000         5.6153320000 
H        5.9351600000       -10.5929880000         6.2778200000 
H        2.4218980000        -3.4119730000         7.8695980000 
H        0.8365690000        -3.2452060000        10.4008110000 
H       -1.6872870000        -4.4646330000         6.6334970000 
H       -1.0586650000        -6.1245850000         6.5543490000 
H        1.1873360000        -4.4526630000         6.1874320000 
H       -2.8972790000        -6.3461770000         0.9861690000 
H       -2.3059250000        -8.6133540000         1.8259400000 
H       -0.8814850000        -7.5735310000         1.7913700000 
H       -1.6820070000        -7.9401270000         3.3324210000 
H       -4.7233990000        -5.7428730000         2.5875540000 
H       -4.0303200000        -6.7952610000         3.8363380000 
H       -5.9242090000        -7.8894790000         2.6401530000 
H       -5.0346670000        -7.8211640000         1.1192490000 
H       -4.4334730000        -8.8105240000         2.4589210000 
H       -0.9952090000        -5.2147510000         2.2177240000 
H       -2.7798200000        -5.5679010000         4.6169470000 
H       -2.2194600000        -1.0257470000         1.6798700000 
H       -2.6808360000        -0.3150820000         0.1330520000 
H       -0.0960740000        -2.3491350000         1.8717780000 
H       -1.1954650000        -0.4730520000        -1.8358200000 
H        2.1987710000        -2.6782780000         1.0206750000 
H        1.0942300000        -0.7882450000        -2.6779060000 
H        2.8127740000        -1.8919830000        -1.2506190000 
H       -4.1188880000        -2.2795820000         0.7948320000 
H       -1.7664410000        -4.0666200000         0.3437860000 
H       -6.6916420000        -1.6919290000        -3.3422650000 
H       -5.8226750000        -0.5215780000        -4.3406650000 
H       -6.6605910000         0.3627650000        -1.9684010000 
H       -4.9939670000         0.7179940000        -2.4176920000 
H       -4.7189790000        -0.4315460000        -0.2810360000 
H       -6.0065450000        -1.6276190000        -0.6527690000 
H       -4.7282240000        -3.0014050000        -3.5267890000 
H       -1.0171330000        -3.9463450000        -5.9949340000 
H       -0.3471350000        -2.8227180000        -7.2442650000 
H       -2.0443430000        -4.3608920000        -7.9498110000 
H       -0.8175360000        -1.5967790000        -5.1429180000 
H       -3.2307150000        -3.1471080000        -5.1929090000 
H       -4.7920910000        -0.3188890000        -9.0701930000 
H       -4.9896230000         1.4452420000        -9.2167400000 
H       -7.3040150000         1.3810050000        -8.8503180000 
H       -8.0227540000         0.9525570000        -7.3762700000 
H       -2.6759420000         0.9399340000        -8.5936400000 
H       -3.9563370000        -0.6910250000        -6.4517450000 
H       -3.1741490000         3.7126460000        -2.8002700000 
H       -3.5387370000         2.0441510000        -3.2549940000 
H       -5.0110280000         4.8753610000        -1.9534260000 
H       -5.7155650000         2.0038290000        -5.0805840000 
H       -7.4094690000         5.4033410000        -1.8920640000 
H       -8.1442300000         2.5525450000        -5.0214880000 
H       -9.4156480000         5.1252210000        -2.8769560000 
H       -3.6005200000         4.2027930000        -5.4609530000 
H       -2.9995590000         1.2673310000        -5.2651510000 
H        2.4915220000         2.9306090000        -3.9302080000 
H       -0.2350710000         2.0056960000        -2.8103450000 
H        1.3182730000         2.0082920000        -1.9714830000 
H        0.5479840000         3.5378630000        -2.4094700000 
H        2.2200860000         0.4506750000        -3.9502050000 
H        2.0836760000         1.0407640000        -5.6112150000 
H        0.6338650000         0.5807800000        -4.7382260000 
H        0.8078940000         4.4730150000        -4.7165710000 
H       -0.8456240000         2.2663610000        -5.8830070000 
H        8.7763070000         1.7338850000        -8.4028830000 
H        8.4817900000         3.2775380000        -9.1972970000 
H        6.5024150000         0.8966730000        -8.9616350000 
H        7.0411420000         1.6939110000       -10.4377520000 
H        5.9095210000         3.8214980000        -9.8370090000 
H        4.7242260000         2.5613300000        -9.3544480000 
H        7.3055950000         2.2189880000        -6.5417910000 
H        8.8663700000         4.6319380000        -2.9294790000 
H        7.6409840000         5.7993590000        -3.4225150000 
H        8.2904060000         8.2902500000        -3.5869210000 
H       10.9290150000         5.3653350000        -1.8603430000 
H        9.5603180000        10.0866080000        -2.4662800000 
H       12.1962940000         7.1599930000        -0.7578550000 
H       12.4291670000         9.3878840000        -0.4291490000 
H        8.8647840000         6.3345560000        -5.5400920000 
H        8.3042160000         3.4380380000        -4.9503120000 
H       12.4299740000         2.4326250000        -2.9934580000 
H       13.9486160000         2.3214330000        -3.8918230000 
H       12.8547960000        -0.5010020000        -5.6965160000 
H       14.0906890000         0.2295990000        -4.7827830000 
H       13.0768490000         4.5860150000        -4.1553990000 
H       10.5247380000         3.1991740000        -4.6258070000 
H       -8.7460850000         7.6053690000        -3.8645470000 
H      -10.4523870000         7.3013880000        -4.2278480000 
H       -9.0506900000        10.0150740000        -3.8492510000 
H      -10.6031560000         9.4869660000        -3.1828670000 
H      -11.7405900000         9.7481910000        -5.3291010000 
H      -10.5546290000        11.0885930000        -5.4225450000 
H       -8.2169150000         8.1568750000        -6.1360720000 
H      -10.4891790000         9.2113870000        -7.2374320000 
H       -8.2001610000         4.6843770000        -9.5759600000 
H       -8.5470980000         3.1557200000        -8.7692760000 
H       -6.3532380000         4.4446740000        -7.9352690000 
H       -7.4575360000         3.9020630000        -6.6782260000 
H       -7.3428890000         6.2662330000        -6.2010510000 
H       -7.3041390000         6.7309680000        -7.9366910000 
H      -10.4104210000         5.2244640000        -8.7838600000 
H      -13.9030610000         1.0666100000        -7.5448690000 
H      -12.4878670000         0.4254990000        -8.3744580000 
H      -13.7449650000         3.2277830000        -8.7218200000 
H      -13.3979700000         2.0447380000        -9.9800050000 
H      -10.9387790000         2.2652920000        -9.6443750000 
H      -11.5475520000         3.9487430000        -9.5453430000 
H      -12.5901830000         2.5110290000        -6.0947720000 
H      -11.8534360000        -0.5741180000        -2.5956350000 
H      -10.3813830000         1.0708660000        -1.3664220000 
H      -10.9013510000         1.7584580000        -2.9038730000 
H       -9.2682740000         1.1427010000        -2.7401510000 
H      -10.2642470000        -2.5162410000        -2.5047910000 
H       -8.8767780000        -1.4117840000        -2.4270040000 
H      -10.0585860000        -1.4519540000        -1.1165290000 
H       -9.5996870000        -0.3978230000        -4.7108230000 
H      -12.3086880000         0.7426250000        -4.6415190000 
H      -10.1568000000        -4.5806290000        -6.5390610000 
H      -11.7830620000        -3.8630520000        -6.6496680000 
H      -12.3561910000        -8.9811220000        -5.5224710000 
H      -11.4415670000        -9.5108950000        -4.1095810000 
H       -9.9944120000        -9.0710520000        -6.2964690000 
H       -9.4178780000        -8.2978240000        -4.8240710000 
H       -9.6848370000        -6.3867150000        -6.3495670000 
H      -11.2061810000        -7.0426640000        -7.0391570000 
H      -13.0473210000        -7.2116620000        -4.0552630000 
H        3.3428010000         3.2778870000        -8.2632430000 
H       -8.7087930000        -1.7424590000        -4.7052680000 
H       -8.9199520000        -1.7821290000        -6.5013530000 
H       -8.6185110000        -4.4073420000        -4.8416250000 
H       -6.0972990000        -4.1254640000        -5.0925600000 
H       -6.3193910000        -2.4894390000        -5.7353160000 
H       -7.7029440000        -3.3984840000        -7.6924120000 
H       -7.5031030000        -5.0524070000        -7.1088350000 
C        3.5695330000         5.4559930000        -8.1915430000 
H        2.5592840000         5.6449560000        -8.5818200000 
H        3.7955790000         6.2625210000        -7.4807050000 
H        4.2754510000         5.5359540000        -9.0233530000 
H        2.9968320000         4.5470300000        -5.5607460000 
O       17.6975820000        -1.1880750000        -6.2088340000 
H       18.3089270000        -1.9460960000        -6.3992460000 
O      -12.0423500000        -6.4579960000        -1.7154290000 
H      -11.6504100000        -6.6309450000        -0.8198850000 
O        3.1211060000       -14.3055480000        -1.7598880000 
H        3.9555090000       -14.4658030000        -1.2257070000 
O       -6.0385360000        11.2860860000         2.9979770000 
H       -5.4971520000        12.0928790000         3.2341600000 
O      -11.7330690000        -8.0893760000         3.6996290000 
H      -11.7377500000        -8.7818280000         2.9808520000 
O       -4.9236140000       -10.7762010000        -3.9391980000 
H       -5.8250660000       -10.6636260000        -4.3642050000 
O        2.4979450000        -9.9709350000         3.8230090000 
H        2.3021700000       -10.8226200000         4.3057880000 
O        2.2721280000         9.6464970000         4.4708300000 
H        1.7806230000        10.2017630000         5.1406980000 
O       -9.1069980000        -4.7045630000         2.6418480000 
H       -9.9937420000        -4.3874970000         2.3145910000 
O       14.3710610000         4.3731660000        -6.4125160000 
H       14.5269600000         4.3691310000        -7.3905210000 
