         935
0 1
N       16.8386180000        -5.2648740000         1.8941840000 
C       16.5344220000        -3.9984180000         2.6207470000 
C       15.0289060000        -3.8047680000         2.7731610000 
O       14.2317830000        -4.5132120000         2.1550780000 
C       17.1209070000        -2.7996200000         1.8672680000 
C       16.5694870000        -2.6321190000         0.4564050000 
C       16.8618080000        -1.2667840000        -0.1378990000 
O       15.9604020000        -0.3985840000        -0.1070370000 
N       14.6465560000        -2.8376160000         3.5996410000 
C       13.2391280000        -2.5309200000         3.8211450000 
C       12.7369360000        -1.7360880000         2.6142770000 
O       13.3219160000        -0.7171750000         2.2466570000 
C       13.0367900000        -1.6904670000         5.1111510000 
O       13.7132010000        -2.3151550000         6.2099290000 
C       11.5539860000        -1.5806370000         5.4474980000 
N       11.6769170000        -2.2290080000         1.9807010000 
C       11.1073690000        -1.5620280000         0.8160550000 
C        9.9330500000        -0.6706530000         1.2001610000 
O        9.1849970000        -0.9745450000         2.1300380000 
C       10.6520260000        -2.5913060000        -0.2218680000 
C       11.7451620000        -3.5326040000        -0.7039540000 
C       12.8805150000        -2.7880550000        -1.3826040000 
C       13.9472250000        -3.7477730000        -1.8810110000 
N       15.0729320000        -3.0235100000        -2.5354850000 
N        9.7979280000         0.4449640000         0.4933310000 
C        8.7170840000         1.3919010000         0.7295470000 
C        8.0675710000         1.7541270000        -0.5968070000 
O        8.6842470000         1.6384810000        -1.6556070000 
C        9.2418600000         2.6699340000         1.3916750000 
C        9.8161030000         2.4508260000         2.7569220000 
C        9.0004430000         2.4841430000         3.8832990000 
C       11.1720150000         2.1895600000         2.9191410000 
C        9.5255510000         2.2563550000         5.1515080000 
C       11.7111160000         1.9593480000         4.1826260000 
C       10.8854710000         1.9932140000         5.3020040000 
N        6.8068020000         2.1592280000        -0.5332830000 
C        6.0719610000         2.5686040000        -1.7183190000 
C        5.2878090000         3.8245060000        -1.3698330000 
O        4.7882220000         3.9635000000        -0.2530840000 
C        5.1009740000         1.4635900000        -2.2312820000 
C        5.8864650000         0.3053350000        -2.8519520000 
C        4.2072330000         0.9620070000        -1.1022970000 
N        5.2368350000         4.7665970000        -2.3039380000 
C        4.5039890000         6.0059460000        -2.0845480000 
C        3.1610730000         5.9699020000        -2.8091840000 
O        3.0231000000         5.3357420000        -3.8600420000 
C        5.3317130000         7.2154170000        -2.5252620000 
C        5.7707840000         7.1907550000        -3.9798040000 
C        6.5822010000         8.4109320000        -4.3523970000 
O        6.1581760000         9.5429300000        -4.1199820000 
N        7.7607910000         8.1887150000        -4.9216230000 
N        2.1821590000         6.6688160000        -2.2420240000 
C        0.8371480000         6.7135700000        -2.7874360000 
C        0.6354710000         7.7358830000        -3.8881610000 
O        0.9098830000         8.9231610000        -3.7126730000 
C       -0.1598370000         6.9486960000        -1.6759930000 
N        0.1292360000         7.2522770000        -5.0198770000 
C       -0.1614410000         8.0836440000        -6.1837600000 
C       -1.5527330000         8.6856720000        -6.0330020000 
O       -1.7773990000         9.8440080000        -6.3852210000 
C       -0.1033450000         7.2422340000        -7.4619190000 
C        1.2586450000         6.7043810000        -7.9076350000 
C        1.0830910000         5.6057890000        -8.9381350000 
C        2.0924520000         7.8415000000        -8.4693000000 
N       -2.4805030000         7.8899110000        -5.4972540000 
C       -3.8642560000         8.3210950000        -5.2949150000 
C       -4.3845700000         7.8723130000        -3.9294610000 
O       -3.7643250000         7.0487400000        -3.2505390000 
C       -4.7839330000         7.7227080000        -6.3713690000 
C       -4.2075450000         7.7466490000        -7.7582660000 
C       -3.4404910000         6.6755810000        -8.2217590000 
C       -4.4278370000         8.8323490000        -8.5995430000 
C       -2.9026770000         6.6864690000        -9.4986210000 
C       -3.8959790000         8.8551440000        -9.8798330000 
C       -3.1303370000         7.7803290000       -10.3328880000 
N       -5.5325430000         8.4210490000        -3.5429400000 
C       -6.1843670000         8.0697580000        -2.2859740000 
C       -6.8547260000         6.7151500000        -2.4755810000 
O       -7.4754560000         6.4740680000        -3.5129250000 
C       -7.2710620000         9.0945600000        -1.9275630000 
C       -6.7094880000        10.4074180000        -1.4105260000 
O       -5.5062770000        10.6777070000        -1.5948870000 
N       -6.7290680000         5.8347720000        -1.4848810000 
C       -7.3530700000         4.5192240000        -1.5572430000 
C       -8.3238370000         4.2680980000        -0.4081650000 
O       -7.9100530000         4.1144260000         0.7420660000 
C       -6.2998400000         3.4081350000        -1.5945930000 
C       -6.8875400000         2.0239630000        -1.6139670000 
C       -7.8548530000         1.6801360000        -2.5557610000 
C       -6.5067280000         1.0779520000        -0.6661390000 
C       -8.4332090000         0.4170940000        -2.5478200000 
C       -7.0802250000        -0.1911510000        -0.6483160000 
C       -8.0456190000        -0.5219670000        -1.5902570000 
N       -9.6162160000         4.2394610000        -0.7346440000 
C      -10.6802370000         3.9840470000         0.2386610000 
C      -11.1966850000         2.5595490000         0.0149990000 
O      -11.8578530000         2.2843400000        -0.9857500000 
C      -11.8333900000         4.9863110000         0.0664060000 
C      -11.4285810000         6.4100400000         0.4043020000 
O      -11.0724420000         7.1917660000        -0.4770040000 
N      -11.4910610000         6.7557040000         1.6842860000 
N      -10.8708240000         1.6318840000         0.9303620000 
C      -11.2767200000         0.2271100000         0.8622860000 
C      -12.7796060000        -0.0267750000         0.8305380000 
O      -13.5632270000         0.7176000000         1.4202340000 
C      -10.6406680000        -0.3646440000         2.1184060000 
C       -9.4031100000         0.4482600000         2.2686630000 
C       -9.9438360000         1.8373550000         2.0523140000 
N      -13.1660110000        -1.0706550000         0.1016320000 
C      -14.5654040000        -1.4701440000        -0.0179110000 
C      -14.7670210000        -2.7942030000         0.7205530000 
O      -15.8949410000        -3.1893910000         1.0167420000 
C      -14.9676770000        -1.6114250000        -1.4931940000 
C      -14.8830310000        -0.3184910000        -2.3098170000 
C      -15.8032540000         0.7792470000        -1.7912800000 
O      -17.0255790000         0.6240420000        -1.7725300000 
N      -15.2159090000         1.8995710000        -1.3742660000 
N      -13.6567370000        -3.4683080000         1.0122870000 
C      -13.6676080000        -4.7377630000         1.7271910000 
C      -12.7113070000        -4.6758400000         2.9139490000 
O      -11.8576180000        -3.7888530000         2.9907630000 
C      -13.2531860000        -5.8829470000         0.8059800000 
C      -14.2877130000        -6.2601010000        -0.2424240000 
C      -13.8239070000        -7.4014140000        -1.1353490000 
O      -14.2969770000        -7.4785330000        -2.2902370000 
N      -12.8575580000        -5.6255700000         3.8350990000 
C      -12.0115750000        -5.6888670000         5.0218490000 
C      -10.6702060000        -6.3294130000         4.7006770000 
O      -10.5514530000        -7.1173340000         3.7592650000 
C      -12.7069420000        -6.4717050000         6.1384990000 
O      -12.8866440000        -7.8304610000         5.7761240000 
N       -9.6656010000        -5.9950320000         5.5037810000 
C       -8.3327370000        -6.5315260000         5.2953560000 
C       -7.5235520000        -5.6952240000         4.3224170000 
O       -6.4065060000        -6.0652780000         3.9600280000 
N       -8.0891620000        -4.5644590000         3.9084130000 
C       -7.4361520000        -3.6616300000         2.9687830000 
C       -6.8757120000        -2.4275250000         3.6710280000 
O       -7.4811620000        -1.9068430000         4.6111020000 
C       -8.4138510000        -3.2473700000         1.8620390000 
C       -8.8580360000        -4.4074480000         0.9708420000 
C       -9.9335820000        -4.0316690000        -0.0435920000 
O      -10.5760480000        -2.9692380000         0.0974050000 
N       -5.7318350000        -1.9517090000         3.1817730000 
C       -5.0570890000        -0.7862490000         3.7489620000 
C       -5.4730390000         0.5521860000         3.1391090000 
O       -5.2103060000         0.8215650000         1.9672510000 
C       -3.5402150000        -0.9502880000         3.6175290000 
C       -2.6922860000         0.1440360000         4.2651000000 
C       -2.8662660000         0.1027540000         5.7791670000 
C       -1.2366080000        -0.0471240000         3.8859220000 
N       -6.0937490000         1.4003270000         3.9523020000 
C       -6.5201410000         2.7214210000         3.5015970000 
C       -5.3593700000         3.7044980000         3.6097260000 
O       -4.5666100000         3.6367410000         4.5497050000 
C       -7.6923650000         3.2109070000         4.3351870000 
N       -5.2479530000         4.5980890000         2.6319980000 
C       -4.1965630000         5.6132170000         2.6249370000 
C       -4.5361210000         6.7985700000         1.7340320000 
O       -5.5133680000         6.7673710000         0.9808190000 
C       -2.8341250000         5.0140660000         2.2289340000 
C       -2.8278340000         4.2943170000         0.9067770000 
C       -2.9657350000         4.9910690000        -0.2934760000 
C       -2.6407790000         2.9143330000         0.8626030000 
C       -2.9150100000         4.3231120000        -1.5190820000 
C       -2.5854850000         2.2334220000        -0.3546760000 
C       -2.7236940000         2.9382790000        -1.5489950000 
N       -3.7505680000         7.8615920000         1.8632880000 
C       -3.9422580000         9.0657830000         1.0670780000 
C       -2.7658570000         9.2371420000         0.1141560000 
O       -1.7152050000         8.6179750000         0.2925250000 
C       -4.0845970000        10.3005360000         1.9650100000 
C       -5.2844530000        10.2421910000         2.9005340000 
C       -5.6558180000        11.6081220000         3.4592450000 
C       -6.9604690000        11.5292280000         4.2481910000 
N       -7.4720360000        12.8566950000         4.7077310000 
N       -2.9606450000        10.0483670000        -0.9204970000 
C       -1.9083100000        10.3116090000        -1.8909440000 
C       -0.7484330000        10.9719400000        -1.1626790000 
O       -0.9479880000        11.9094480000        -0.3900260000 
C       -2.4225350000        11.2341420000        -2.9991830000 
C       -1.3381530000        11.7616970000        -3.9316220000 
C       -1.9328230000        12.6435360000        -5.0117080000 
N       -2.7157070000        13.7500100000        -4.4642640000 
C       -2.1942660000        14.8253650000        -3.8807130000 
N       -0.8756540000        14.9485770000        -3.7595830000 
N       -2.9911150000        15.7944850000        -3.4421400000 
N        0.4541780000        10.4578080000        -1.3848220000 
C        1.6164930000        11.0297480000        -0.7411280000 
C        2.1399910000        10.1734340000         0.3902220000 
O        3.3196380000        10.2628680000         0.7351510000 
N        1.2734500000         9.3386540000         0.9588560000 
C        1.6589650000         8.4586630000         2.0569020000 
C        2.6876190000         7.4234750000         1.6267460000 
O        2.6809570000         6.9590160000         0.4874100000 
C        0.4384760000         7.7435810000         2.6401510000 
C       -0.5005830000         8.6832880000         3.3609390000 
O       -1.5652700000         8.2169610000         3.8191010000 
N        3.5943780000         7.0950110000         2.5369380000 
C        4.6249280000         6.1033500000         2.2703880000 
C        4.2458820000         4.8452640000         3.0421500000 
O        4.0592740000         4.8783020000         4.2614100000 
C        6.0240580000         6.5975540000         2.7096680000 
C        7.0673510000         5.5359870000         2.4354570000 
C        6.3837820000         7.8885040000         1.9823430000 
N        4.0776040000         3.7511350000         2.3119820000 
C        3.6996270000         2.4768090000         2.9047570000 
C        4.8919830000         1.5249210000         2.9590030000 
O        5.6853240000         1.4492920000         2.0210550000 
C        2.5532020000         1.7928700000         2.0921440000 
C        1.3117650000         2.6855390000         2.0329880000 
C        2.1808060000         0.4558080000         2.7014720000 
C        1.3048510000         3.6595750000         0.8751870000 
N        5.0358380000         0.8285430000         4.0793400000 
C        6.1104890000        -0.1436360000         4.2229370000 
C        5.6122030000        -1.3604850000         3.4647900000 
O        4.4346910000        -1.6941360000         3.5393520000 
C        6.3245270000        -0.5421250000         5.6818740000 
O        6.6045780000         0.6241410000         6.4605380000 
C        7.4818080000        -1.5067990000         5.7928840000 
N        6.4904940000        -2.0156700000         2.7194170000 
C        6.0686340000        -3.1751730000         1.9533050000 
C        6.3900770000        -4.4853790000         2.6582180000 
O        7.5565200000        -4.8183880000         2.8811260000 
C        6.6897180000        -3.1436750000         0.5535190000 
C        5.8791050000        -3.8426650000        -0.5411310000 
C        4.4707570000        -3.2578210000        -0.5971550000 
C        6.5829080000        -3.6895790000        -1.8810910000 
N        5.3370360000        -5.2160230000         3.0155940000 
C        5.4664780000        -6.5029960000         3.6919440000 
C        5.5549420000        -7.6399740000         2.6697890000 
O        6.5112670000        -8.4208300000         2.6788650000 
C        4.2604800000        -6.7551300000         4.6257550000 
C        4.0934120000        -5.5800770000         5.5903010000 
C        4.4534370000        -8.0472590000         5.4031160000 
C        2.8424260000        -5.6426910000         6.4256920000 
N        4.5665470000        -7.7067590000         1.7773700000 
C        4.5031130000        -8.7419880000         0.7441700000 
C        4.2350410000        -8.1601800000        -0.6361490000 
O        3.8270910000        -7.0066860000        -0.7752190000 
C        3.3780280000        -9.7401510000         1.0466270000 
C        3.5500930000       -10.4429400000         2.3765570000 
O        2.9965600000       -10.0162930000         3.3925000000 
N        4.2965360000       -11.5399540000         2.3758380000 
N        4.4183830000        -9.0095750000        -1.6451120000 
C        4.1908570000        -8.6685810000        -3.0493000000 
C        3.5928090000        -9.8896800000        -3.7443010000 
O        3.3490340000        -9.8742640000        -4.9533470000 
C        5.5025610000        -8.2990140000        -3.7387840000 
C        5.5486740000        -6.8830930000        -4.2670080000 
C        6.5592410000        -6.7657050000        -5.3870550000 
C        7.6072190000        -5.7152960000        -5.0836880000 
N        8.5838950000        -5.5974720000        -6.1993500000 
N        3.3763440000       -10.9412710000        -2.9534290000 
C        2.8233840000       -12.2250040000        -3.3921680000 
C        1.8685840000       -12.1207600000        -4.5793270000 
O        2.1348900000       -12.6720000000        -5.6454340000 
C        2.1155980000       -12.9115190000        -2.2178070000 
C        3.0505570000       -13.1928520000        -1.0459420000 
O        3.8967850000       -12.3343810000        -0.7192260000 
N        0.7551230000       -11.4163040000        -4.3813110000 
C       -0.2377870000       -11.2135220000        -5.4322020000 
C        0.2273310000       -10.0249580000        -6.2816520000 
O        0.4395460000        -8.9269430000        -5.7569130000 
C       -1.6116150000       -10.9213610000        -4.7989520000 
C       -2.7591200000       -10.9218660000        -5.8139360000 
O       -2.5297500000       -10.6465970000        -7.0088860000 
N        0.3944690000       -10.2297520000        -7.6041970000 
C        0.8410140000        -9.1933700000        -8.5473890000 
C       -0.0586040000        -7.9443400000        -8.6355440000 
O        0.3292960000        -6.9279180000        -9.2189740000 
C        0.9101280000        -9.9512070000        -9.8764420000 
C       -0.1370550000       -11.0257940000        -9.7095750000 
C        0.1588170000       -11.5012450000        -8.3074290000 
N       -1.2315010000        -8.0134300000        -8.0142610000 
C       -2.1842060000        -6.9023340000        -8.0246160000 
C       -2.4497200000        -6.3401780000        -6.6341290000 
O       -2.7876680000        -5.1659500000        -6.4859360000 
C       -3.5064250000        -7.3510760000        -8.6539600000 
C       -3.3539720000        -7.7590550000       -10.1053710000 
O       -3.4647130000        -8.9372390000       -10.4416800000 
N       -3.0857430000        -6.7857570000       -10.9736750000 
N       -2.3230780000        -7.1865900000        -5.6173070000 
C       -2.5597230000        -6.7676100000        -4.2439450000 
C       -1.3317430000        -7.0209480000        -3.3954200000 
O       -0.8931170000        -8.1604300000        -3.2277210000 
C       -3.7748550000        -7.4933860000        -3.6528890000 
C       -5.0687880000        -7.0998230000        -4.2971390000 
C       -5.6108340000        -7.6282580000        -5.4357120000 
C       -5.9587040000        -6.0620240000        -3.8722750000 
N       -6.7788940000        -6.9755560000        -5.7504210000 
C       -7.0189140000        -6.0121130000        -4.8086790000 
C       -5.9730180000        -5.1675500000        -2.7956110000 
C       -8.0739260000        -5.1009190000        -4.6985790000 
C       -7.0247010000        -4.2613180000        -2.6866500000 
C       -8.0598640000        -4.2370410000        -3.6330820000 
N       -0.7532210000        -5.9389840000        -2.8968050000 
C        0.4284990000        -6.0312900000        -2.0588090000 
C        0.0397660000        -5.7825120000        -0.6133720000 
O       -0.9641420000        -5.1268190000        -0.3418760000 
C        1.4624400000        -4.9962810000        -2.5011010000 
C        2.0225550000        -5.2326180000        -3.8728950000 
C        1.9033730000        -6.3649500000        -4.6293900000 
C        2.8219520000        -4.3241140000        -4.6367280000 
N        2.5850580000        -6.2180160000        -5.8158120000 
C        3.1580980000        -4.9744950000        -5.8455630000 
C        3.2897980000        -3.0205830000        -4.4144990000 
C        3.9434020000        -4.3660590000        -6.8298670000 
C        4.0686250000        -2.4164470000        -5.3946130000 
C        4.3885390000        -3.0905890000        -6.5851480000 
N        0.8165290000        -6.3298650000         0.3136910000 
C        0.5388160000        -6.1265600000         1.7277460000 
C        1.5361590000        -5.1462320000         2.3446500000 
O        2.7494810000        -5.3039220000         2.1998990000 
C        0.5364140000        -7.4509710000         2.4917010000 
C        0.1554720000        -7.2810820000         3.9541300000 
C       -0.2056540000        -8.5753470000         4.6417550000 
O       -1.1070890000        -8.5392210000         5.5016520000 
N        1.0098850000        -4.1317680000         3.0236930000 
C        1.8620260000        -3.1370720000         3.6425830000 
C        1.3425660000        -2.5787150000         4.9526020000 
O        0.2115530000        -2.8572260000         5.3592350000 
N        2.1733840000        -1.7590610000         5.5956260000 
C        1.8402900000        -1.1475900000         6.8766470000 
C        1.9889880000         0.3784180000         6.8412590000 
O        2.9679560000         0.9070180000         6.3063880000 
C        2.7386640000        -1.7423100000         7.9748350000 
C        2.3612690000        -1.3616020000         9.4090070000 
C        1.8776180000        -2.5464230000        10.2388990000 
O        2.2237790000        -3.7014850000         9.9688900000 
N        1.0787580000        -2.2606180000        11.2592160000 
N        0.9991310000         1.0712660000         7.4019820000 
C        0.9918050000         2.5304500000         7.4763970000 
C        0.6563160000         2.8917610000         8.9244120000 
O       -0.5067580000         3.1000500000         9.2792130000 
C       -0.0423030000         3.1170130000         6.5103830000 
C       -0.0531320000         4.6393870000         6.3151080000 
C        1.3140560000         5.1184360000         5.8438220000 
C       -1.1316160000         5.0266360000         5.3114830000 
N        1.7077850000         2.9517050000         9.7421530000 
C        1.6505250000         3.2279870000        11.1807210000 
C        1.0598300000         2.0177180000        11.9183030000 
O        1.6340150000         0.9305950000        11.8705210000 
C        0.8926210000         4.5315220000        11.5029170000 
C        1.1561740000         5.0347710000        12.9336030000 
O        2.1953660000         4.7502680000        13.5310890000 
N        0.2084980000         5.7811550000        13.4774850000 
N       -0.0987430000         2.1858090000        12.5500330000 
C       -0.7402770000         1.1025030000        13.2970960000 
C       -1.5053750000         0.1124610000        12.4163280000 
O       -1.7118860000        -1.0431220000        12.7981710000 
C       -1.6932570000         1.6936640000        14.3400770000 
C       -1.0158480000         2.7152870000        15.2387080000 
O        0.1575830000         2.5703560000        15.5881360000 
N       -1.7492130000         3.7591090000        15.6076940000 
N       -1.8957700000         0.5713950000        11.2303620000 
C       -2.6707270000        -0.2308250000        10.2875080000 
C       -1.8866230000        -1.1721310000         9.3744610000 
O       -0.7985360000        -0.8450670000         8.9021390000 
C       -3.5370680000         0.6972680000         9.4356710000 
C       -4.3830270000         1.6485270000        10.2518570000 
C       -5.0774930000         2.6728470000         9.3787890000 
N       -5.7731830000         3.6680670000        10.1907610000 
C       -6.6195380000         4.5739530000         9.7100530000 
N       -6.8861940000         4.6166960000         8.4099090000 
N       -7.2005290000         5.4396880000        10.5311050000 
N       -2.4679040000        -2.3438640000         9.1262380000 
C       -1.8826740000        -3.3531150000         8.2491600000 
C       -2.9757280000        -3.8767990000         7.3176520000 
O       -4.1468810000        -3.9400310000         7.6972730000 
C       -1.2730240000        -4.5121460000         9.0502210000 
C       -0.6614850000        -5.6101000000         8.1755150000 
C        0.1736680000        -6.5935040000         8.9760680000 
N        0.6401160000        -7.7110420000         8.1541130000 
C        1.6922690000        -8.4761800000         8.4389270000 
N        2.4109310000        -8.2493530000         9.5340300000 
N        2.0239950000        -9.4799420000         7.6362330000 
N       -2.5916850000        -4.2165080000         6.0895490000 
C       -3.5530720000        -4.7294820000         5.1310380000 
C       -3.0154240000        -4.7639910000         3.7178200000 
O       -1.8298120000        -4.5109130000         3.4876320000 
N       -3.8855910000        -5.1017400000         2.7727690000 
C       -3.5067870000        -5.1653810000         1.3671610000 
C       -4.0431080000        -3.9783870000         0.5699680000 
O       -5.0570120000        -3.3738430000         0.9253080000 
C       -3.9693600000        -6.4794070000         0.6986140000 
C       -5.4842900000        -6.6572910000         0.8563380000 
C       -3.1734850000        -7.6555990000         1.2548850000 
C       -6.0323360000        -7.8945310000         0.1881740000 
N       -3.3669770000        -3.6777320000        -0.5314600000 
C       -3.7426180000        -2.5599690000        -1.3861780000 
C       -3.4094150000        -2.8440450000        -2.8577400000 
O       -2.5775910000        -3.7058520000        -3.1707640000 
C       -3.0073530000        -1.2958310000        -0.9138990000 
C       -1.5067680000        -1.4403860000        -0.9003880000 
C       -0.8564970000        -1.9758190000         0.2063940000 
C       -0.7477190000        -1.0787450000        -2.0110440000 
C        0.5300000000        -2.1549060000         0.2045230000 
C        0.6331370000        -1.2542500000        -2.0213020000 
C        1.2734120000        -1.7924960000        -0.9130510000 
N       -4.0993650000        -2.1579120000        -3.7826290000 
C       -3.8895930000        -2.3138740000        -5.2266270000 
C       -2.5118330000        -1.7933590000        -5.6650240000 
O       -2.1897320000        -0.6236030000        -5.4722240000 
C       -5.0420500000        -1.5003990000        -5.8290690000 
C       -5.3583710000        -0.4855640000        -4.7697040000 
C       -5.2489440000        -1.2823190000        -3.5067960000 
N       -1.7101780000        -2.6734670000        -6.2578010000 
C       -0.3602700000        -2.3368230000        -6.7088790000 
C       -0.2606420000        -1.2034720000        -7.7277220000 
O        0.8235690000        -0.6671950000        -7.9497650000 
C        0.3392730000        -3.5815810000        -7.2645560000 
O       -0.2982600000        -4.0600310000        -8.4364260000 
N       -1.3833000000        -0.8537650000        -8.3510310000 
C       -1.4129530000         0.2064650000        -9.3528820000 
C       -1.6554370000         1.5949160000        -8.7508270000 
O       -1.7443780000         2.5926660000        -9.4712080000 
C       -2.4570770000        -0.1123680000       -10.4393190000 
C       -3.8851690000        -0.1806270000        -9.8995010000 
O       -4.1197030000        -0.5709650000        -8.7530740000 
N       -4.8462540000         0.1981770000       -10.7365120000 
N       -1.7727430000         1.6425930000        -7.4261150000 
C       -1.9905330000         2.8939550000        -6.7034330000 
C       -0.6978130000         3.4200980000        -6.0707950000 
O       -0.6876550000         4.5031530000        -5.4806720000 
C       -3.0565510000         2.7095140000        -5.6166880000 
C       -4.4664750000         2.9687340000        -6.0876650000 
C       -5.0201620000         2.2394650000        -7.1474950000 
C       -5.2462780000         3.9525490000        -5.4859300000 
C       -6.3167450000         2.4931370000        -7.5957370000 
C       -6.5438520000         4.2152640000        -5.9290490000 
C       -7.0713480000         3.4847870000        -6.9851930000 
O       -8.3356110000         3.7731390000        -7.4452550000 
N        0.3854110000         2.6578170000        -6.1966170000 
C        1.6597060000         3.0578610000        -5.6190220000 
C        2.8458590000         2.9528450000        -6.5739480000 
O        2.7893050000         2.2742110000        -7.6004400000 
C        1.9990160000         2.2324200000        -4.3361650000 
C        0.8608130000         2.3129180000        -3.3265510000 
C        2.3232320000         0.7800700000        -4.6896210000 
N        3.9190040000         3.6433690000        -6.2043920000 
C        5.1701970000         3.6604600000        -6.9506230000 
C        6.2982050000         3.4847620000        -5.9292050000 
O        6.1308820000         3.8109880000        -4.7524880000 
N        7.4569190000         2.9542700000        -6.3567730000 
C        8.6128730000         2.7306420000        -5.4785890000 
C        9.1258410000         4.0253740000        -4.8464570000 
O        9.5916230000         4.9225920000        -5.5495110000 
C        9.6501730000         2.1269940000        -6.4305300000 
C        8.8037230000         1.4555170000        -7.4828870000 
C        7.7377390000         2.4867810000        -7.7259560000 
N        9.0099240000         4.1280720000        -3.5247010000 
C        9.4724830000         5.3155790000        -2.8098960000 
C       10.9326120000         5.1854200000        -2.3961530000 
O       11.7289080000         6.1021770000        -2.6044880000 
C        8.6152340000         5.5848730000        -1.5705190000 
C        9.1042380000         6.7559190000        -0.7427020000 
C        8.8010370000         8.0643660000        -1.1056910000 
C        9.8812170000         6.5536730000         0.4007290000 
C        9.2579320000         9.1472940000        -0.3539930000 
C       10.3435740000         7.6291040000         1.1589050000 
C       10.0267010000         8.9208960000         0.7758250000 
O       10.4695000000         9.9887150000         1.5231610000 
N       11.2695100000         4.0527800000        -1.7865370000 
C       12.6336080000         3.8045770000        -1.3333260000 
C       13.6369350000         3.7492290000        -2.4903060000 
O       13.3340180000         3.1560600000        -3.5579970000 
C       12.7019810000         2.5216490000        -0.4834930000 
C       12.4093390000         1.2576290000        -1.2831480000 
O       11.3671790000         1.1372360000        -1.9280060000 
N       13.3333480000         0.3043780000        -1.2339010000 
H       18.2260410000        -2.9251510000         1.8252190000 
H       16.9462520000        -1.8700480000         2.4507510000 
H       15.4578570000        -2.7679550000         0.4681040000 
H       16.9371110000        -3.4387810000        -0.2149930000 
H       17.0205170000        -4.0782620000         3.6306210000 
H       16.3582810000        -5.2843280000         1.0022160000 
H       16.5230080000        -6.0641510000         2.4259930000 
H       13.5470990000        -0.7043730000         5.0450300000 
H       11.4158510000        -1.0786890000         6.4153280000 
H       11.0586540000        -2.5555820000         5.5109500000 
H       11.0088970000        -0.9826760000         4.6994540000 
H       13.2906750000        -3.1645260000         6.4397990000 
H       12.6801380000        -3.5069960000         3.9214770000 
H       15.3011620000        -2.2224210000         4.0746720000 
H       10.2123290000        -2.0534970000        -1.0915000000 
H        9.8137380000        -3.1943870000         0.1988680000 
H       11.3069160000        -4.2836980000        -1.3933890000 
H       12.1444120000        -4.1240030000         0.1519450000 
H       13.3400680000        -2.0980270000        -0.6399580000 
H       12.4820350000        -2.1829840000        -2.2224700000 
H       13.5362690000        -4.4915790000        -2.5951560000 
H       14.3762770000        -4.3370410000        -1.0382560000 
H       14.8643080000        -2.7892360000        -3.4910980000 
H       15.3113250000        -2.1800040000        -2.0427200000 
H       11.9256320000        -0.9162500000         0.3644510000 
H       11.1321480000        -3.0162480000         2.3298120000 
H        8.4055900000         3.4076760000         1.4559960000 
H        9.9953220000         3.1535870000         0.7301770000 
H       11.8310740000         2.1340550000         2.0521690000 
H        7.9326160000         2.6877350000         3.7713160000 
H       12.7737080000         1.7471930000         4.2871270000 
H        8.8832250000         2.3049730000         6.0289710000 
H       11.3004960000         1.8177920000         6.2921670000 
H        7.9483370000         0.9180480000         1.4241480000 
H       10.3059670000         0.6261240000        -0.3868210000 
H        4.4623140000         1.9263290000        -3.0292980000 
H        5.2183630000        -0.5067840000        -3.1586230000 
H        6.4498360000         0.6273650000        -3.7349180000 
H        6.6144070000        -0.1124080000        -2.1447500000 
H        3.4527310000         0.2571280000        -1.4687180000 
H        4.7789430000         0.4504910000        -0.3162010000 
H        3.6696940000         1.7937360000        -0.6205880000 
H        6.7972780000         2.7825980000        -2.5615270000 
H        6.2551050000         2.1616230000         0.3445020000 
H        6.2150880000         7.3150640000        -1.8568390000 
H        4.7462670000         8.1502870000        -2.3375640000 
H        4.8683100000         7.1656330000        -4.6387380000 
H        6.3102810000         6.2473570000        -4.2124030000 
H        8.3651300000         8.9465460000        -5.1911090000 
H        8.1327570000         7.2653920000        -5.0751990000 
H        4.3058580000         6.1122420000        -0.9641920000 
H        5.4969300000         4.5773210000        -3.2788940000 
H       -1.1998250000         6.9517280000        -2.0432350000 
H       -0.1125610000         6.1592650000        -0.9103840000 
H       -0.0084780000         7.9005070000        -1.1482220000 
H        0.6262960000         5.6733860000        -3.2219150000 
H        2.2862570000         7.1406200000        -1.3348080000 
H       -0.5427610000         7.8422420000        -8.2917770000 
H       -0.8027260000         6.3783720000        -7.3518760000 
H        1.7860660000         6.2761140000        -7.0138810000 
H        3.0752290000         7.4942120000        -8.8062770000 
H        1.6078380000         8.3198990000        -9.3281610000 
H        2.2688890000         8.6235630000        -7.7188070000 
H        2.0472220000         5.1935070000        -9.2583710000 
H        0.5666760000         5.9582950000        -9.8370880000 
H        0.5019510000         4.7598550000        -8.5452240000 
H        0.5787330000         8.9394680000        -6.2348770000 
H        0.0171510000         6.2370890000        -5.1695810000 
H       -5.7614520000         8.2481160000        -6.3624800000 
H       -5.0328240000         6.6653540000        -6.1041020000 
H       -5.0186800000         9.6796640000        -8.2523210000 
H       -3.2664630000         5.8182140000        -7.5696190000 
H       -4.0787810000         9.7080780000       -10.5312420000 
H       -2.3028160000         5.8450350000        -9.8468230000 
H       -2.7085020000         7.7985690000       -11.3344710000 
H       -3.8859660000         9.4507450000        -5.3685200000 
H       -2.2718440000         6.9385390000        -5.1900520000 
H       -7.9628420000         8.6598700000        -1.1612780000 
H       -7.9454520000         9.2880750000        -2.7935860000 
H       -5.3958850000         8.0271010000        -1.4724740000 
H       -6.0660460000         9.0319570000        -4.1512350000 
H       -5.6071670000         3.5192090000        -0.7250990000 
H       -5.6445720000         3.5481880000        -2.4857880000 
H       -8.1576070000         2.3992840000        -3.3165550000 
H       -5.7445060000         1.3393570000         0.0761370000 
H       -9.1946510000         0.1634170000        -3.2826230000 
H       -6.7624720000        -0.9102650000         0.1071470000 
H       -8.5129690000        -1.5032520000        -1.5739910000 
H       -7.9235260000         4.4679350000        -2.5446020000 
H       -6.1708860000         5.9982290000        -0.6361930000 
H      -12.7107010000         4.6562320000         0.6601530000 
H      -12.1991210000         4.9629360000        -0.9903230000 
H      -11.2288710000         7.6802070000         1.9825270000 
H      -11.7651340000         6.1282570000         2.4145490000 
H      -10.2522880000         4.1153260000         1.2759450000 
H       -9.9412990000         4.4426660000        -1.6801140000 
H      -10.4588250000        -1.4559960000         2.0049350000 
H      -11.3142280000        -0.2853090000         2.9977790000 
H       -8.6196680000         0.1863640000         1.5232860000 
H       -8.9092030000         0.3158390000         3.2531210000 
H      -10.4919110000         2.2269740000         2.9391810000 
H       -9.1350840000         2.5635460000         1.7917420000 
H      -10.8017050000        -0.2187670000        -0.0644680000 
H      -16.0249140000        -1.9793960000        -1.5210490000 
H      -14.3624460000        -2.3951370000        -1.9876030000 
H      -15.1831270000        -0.5326010000        -3.3597540000 
H      -13.8307060000         0.0286530000        -2.3638270000 
H      -15.7546390000         2.6480700000        -0.9770450000 
H      -14.2181660000         1.9501630000        -1.2107120000 
H      -15.2270880000        -0.6949140000         0.4835950000 
H      -12.4860060000        -1.6232280000        -0.4235570000 
H      -13.0010230000        -6.7878480000         1.4066850000 
H      -12.2920500000        -5.6274770000         0.3041910000 
H      -14.5434050000        -5.3897430000        -0.8903420000 
H      -15.2547740000        -6.5523050000         0.2256420000 
H      -14.7237720000        -4.9210930000         2.1072700000 
H      -12.7144710000        -3.0818610000         0.9023790000 
H      -13.7478380000        -6.1239910000         6.3066350000 
H      -12.1479200000        -6.4187340000         7.0893890000 
H      -12.0282070000        -8.2508210000         5.5395670000 
H      -11.8464350000        -4.6182180000         5.3679210000 
H      -13.4303440000        -6.4585900000         3.6875980000 
H       -8.3844200000        -7.5803270000         4.8887670000 
H       -7.7787740000        -6.6076900000         6.2647100000 
H       -9.7621100000        -5.3383420000         6.2730090000 
H       -7.9419940000        -2.4554030000         1.2364350000 
H       -9.3166780000        -2.7632320000         2.3119520000 
H       -9.2643690000        -5.2385940000         1.5950050000 
H       -7.9833650000        -4.8473410000         0.4389290000 
H       -6.5789660000        -4.2245010000         2.4702600000 
H       -8.9853650000        -4.2229640000         4.2457080000 
H       -3.2832260000        -1.0022130000         2.5331600000 
H       -3.2385910000        -1.9356720000         4.0350110000 
H       -3.0365870000         1.1463080000         3.8915070000 
H       -2.2467140000         0.8680810000         6.2655590000 
H       -2.5657080000        -0.8673200000         6.1930600000 
H       -3.9007730000         0.2930500000         6.0793370000 
H       -0.6040100000         0.7402540000         4.3132890000 
H       -1.0908310000        -0.0273270000         2.7989900000 
H       -0.8480250000        -1.0096000000         4.2512540000 
H       -5.3105460000        -0.7745170000         4.8583510000 
H       -5.2477700000        -2.4034980000         2.3928920000 
H       -8.1168180000         4.1321750000         3.9133670000 
H       -8.4947710000         2.4651730000         4.3922590000 
H       -7.3884780000         3.4455100000         5.3710650000 
H       -6.8393320000         2.6294100000         2.4122910000 
H       -6.1950410000         1.2315660000         4.9490560000 
H       -2.5392390000         4.3038960000         3.0418120000 
H       -2.0510300000         5.8002370000         2.2323640000 
H       -2.5519850000         2.3472970000         1.7899450000 
H       -3.0964340000         6.0740180000        -0.2894480000 
H       -2.4192160000         1.1600640000        -0.3616010000 
H       -3.0174670000         4.8910560000        -2.4451330000 
H       -2.6727330000         2.4169810000        -2.5016030000 
H       -4.0923400000         5.9944370000         3.6949310000 
H       -5.9322370000         4.6669630000         1.8662250000 
H       -4.1423350000        11.2082500000         1.3268000000 
H       -3.1561640000        10.4381720000         2.5603500000 
H       -5.0774590000         9.5342440000         3.7312620000 
H       -6.1555110000         9.8019390000         2.3689610000 
H       -5.7532660000        12.3455110000         2.6383670000 
H       -4.8399490000        11.9926600000         4.1024300000 
H       -6.8418630000        10.8875300000         5.1481690000 
H       -7.7657460000        11.0629020000         3.6388860000 
H       -6.8303060000        13.2995860000         5.3427400000 
H       -7.6374030000        13.4743320000         3.9324780000 
H       -4.8924010000         8.9480120000         0.4582310000 
H       -2.8931280000         7.8483590000         2.4315660000 
H       -2.9396390000        12.0973750000        -2.5225650000 
H       -3.1961200000        10.6967870000        -3.5849990000 
H       -0.7703210000        10.9252220000        -4.3965340000 
H       -0.5837710000        12.3528970000        -3.3580040000 
H       -2.5941080000        12.0635550000        -5.6984470000 
H       -1.1062260000        13.0635030000        -5.6428060000 
H       -3.6423290000        13.4541270000        -4.1595230000 
H       -3.9788070000        15.8196170000        -3.5950710000 
H       -2.6104210000        16.6432190000        -3.0656120000 
H       -0.4853390000        15.8088110000        -3.4363110000 
H       -1.5912000000         9.3236730000        -2.3455580000 
H       -3.7512390000        10.6981630000        -0.9570620000 
H        1.3966870000        12.0573510000        -0.3362190000 
H        2.4414180000        11.1761390000        -1.4905610000 
H        0.6499630000         9.7743110000        -2.1363610000 
H        0.7311350000         6.9230050000         3.3349530000 
H       -0.1429800000         7.2376940000         1.8215410000 
H        2.1226280000         9.1231540000         2.8554990000 
H        0.3181090000         9.2191010000         0.6055230000 
H        5.9917440000         6.7978110000         3.8134030000 
H        7.3154380000         8.3190760000         2.3671860000 
H        5.6086710000         8.6606420000         2.0783970000 
H        6.5280470000         7.7257450000         0.9058830000 
H        8.0754600000         5.9004990000         2.6740000000 
H        7.0728510000         5.2390540000         1.3769090000 
H        6.8994520000         4.6325070000         3.0365160000 
H        4.6592630000         5.8952420000         1.1539340000 
H        3.6133580000         7.4893230000         3.4731430000 
H        2.9309350000         1.6240210000         1.0497010000 
H        1.3246270000         0.0066450000         2.1802160000 
H        3.0055350000        -0.2694320000         2.6285370000 
H        1.9150000000         0.5448910000         3.7622630000 
H        1.1972630000         3.2367400000         2.9894100000 
H        0.4025930000         2.0478290000         1.9620420000 
H        1.4627740000         3.1561170000        -0.0874680000 
H        0.3441090000         4.1856710000         0.8003140000 
H        2.0835650000         4.4301210000         0.9553720000 
H        3.3188250000         2.6698330000         3.9562190000 
H        4.2752820000         3.7129250000         1.3090260000 
H        5.3916900000        -0.9180330000         6.1661940000 
H        7.7744020000        -1.6382280000         6.8454030000 
H        7.2367450000        -2.5058350000         5.4036310000 
H        8.3761900000        -1.1646200000         5.2552030000 
H        7.3573050000         1.1222710000         6.0793960000 
H        7.0608740000         0.2733740000         3.7771630000 
H        4.3734610000         0.8769700000         4.8639640000 
H        7.7080790000        -3.5904170000         0.5991010000 
H        6.8513860000        -2.0837880000         0.2545170000 
H        5.7989940000        -4.9349410000        -0.2990490000 
H        3.9488860000        -3.5906330000        -1.5048380000 
H        3.8595430000        -3.5898020000         0.2522720000 
H        4.4905610000        -2.1612270000        -0.6028520000 
H        6.0134710000        -4.1785310000        -2.6823440000 
H        6.6943630000        -2.6357370000        -2.1654460000 
H        7.5809520000        -4.1404180000        -1.8682960000 
H        4.9353920000        -3.0978870000         1.8256220000 
H        7.4652470000        -1.7188030000         2.6025500000 
H        3.3313050000        -6.8438250000         4.0053650000 
H        4.5363800000        -8.9167630000         4.7353270000 
H        5.3575410000        -8.0244780000         6.0228500000 
H        3.6038920000        -8.2399540000         6.0662120000 
H        4.1162670000        -4.6167380000         5.0388530000 
H        4.9814510000        -5.5355700000         6.2603050000 
H        2.8306540000        -4.8598230000         7.2014380000 
H        2.7536400000        -6.5862600000         6.9823650000 
H        1.9304620000        -5.5205260000         5.8325220000 
H        6.4314550000        -6.5147780000         4.2841930000 
H        4.3765140000        -4.9522350000         2.7779000000 
H        3.2690130000       -10.4770030000         0.2285040000 
H        2.4003670000        -9.2015470000         1.0788260000 
H        4.5194340000       -12.0151150000         3.2340100000 
H        4.7798510000       -11.8565160000         1.5548960000 
H        5.5022770000        -9.2817120000         0.7502120000 
H        3.8234020000        -6.9998290000         1.7397410000 
H        5.6827250000        -9.0075640000        -4.5840710000 
H        6.3647590000        -8.4642980000        -3.0567990000 
H        5.7671860000        -6.1763230000        -3.4365900000 
H        4.5500900000        -6.5634460000        -4.6170920000 
H        6.0410170000        -6.5240510000        -6.3400120000 
H        7.0669730000        -7.7324470000        -5.5964150000 
H        8.1887120000        -6.0028220000        -4.1758160000 
H        7.1197900000        -4.7392650000        -4.8554520000 
H        9.2251490000        -4.8375450000        -6.0461500000 
H        8.1229160000        -5.4582340000        -7.0824900000 
H        3.4484310000        -7.8154740000        -3.1134330000 
H        4.9688340000        -9.8595180000        -1.4858170000 
H        1.6400080000       -13.8575790000        -2.5675940000 
H        1.2730100000       -12.2884390000        -1.8359510000 
H        3.6900880000       -12.8716620000        -3.7436460000 
H        3.5601610000       -10.9401750000        -1.9477310000 
H       -1.5870070000        -9.9166030000        -4.2854720000 
H       -1.8223960000       -11.6453930000        -3.9846470000 
H       -0.3033770000       -12.1650480000        -6.0346250000 
H        0.7443580000       -10.6812200000        -3.6584860000 
H        1.9200450000       -10.3732810000       -10.0442010000 
H        0.7166750000        -9.2872130000       -10.7411840000 
H       -0.0597140000       -11.8278940000       -10.4647550000 
H       -1.1713860000       -10.6303180000        -9.8108180000 
H       -0.6975110000       -12.0603840000        -7.8712770000 
H        1.0646760000       -12.1488390000        -8.2382520000 
H        1.8559350000        -8.8203860000        -8.2233310000 
H       -4.2694770000        -6.5501760000        -8.5323350000 
H       -3.9166170000        -8.2265550000        -8.0975180000 
H       -2.8922760000        -6.9935200000       -11.9386740000 
H       -2.9005000000        -5.8393090000       -10.6890650000 
H       -1.7406540000        -6.0434640000        -8.6300320000 
H       -1.5909710000        -8.9109800000        -7.6703350000 
H       -3.8278910000        -7.2778340000        -2.5613700000 
H       -3.6345800000        -8.5927920000        -3.7183120000 
H       -5.2413780000        -8.4307720000        -6.0499460000 
H       -7.4496850000        -7.2710980000        -6.4326180000 
H       -5.1690970000        -5.1847770000        -2.0628700000 
H       -7.0526140000        -3.5710320000        -1.8461080000 
H       -8.8735990000        -5.0883870000        -5.4363540000 
H       -8.8640490000        -3.5089980000        -3.5138990000 
H       -2.8152290000        -5.6473650000        -4.2511740000 
H       -1.8310020000        -8.0767290000        -5.7100820000 
H        2.3153950000        -4.9881890000        -1.7774180000 
H        1.0240980000        -3.9694880000        -2.4547150000 
H        1.3518920000        -7.2786760000        -4.4268580000 
H        2.5962510000        -6.9092280000        -6.5364770000 
H        3.0398430000        -2.5023230000        -3.4933290000 
H        4.4266050000        -1.3984530000        -5.2520530000 
H        4.1774180000        -4.8873350000        -7.7526680000 
H        4.9894260000        -2.5709060000        -7.3326610000 
H        0.8711610000        -7.0711300000        -2.1609310000 
H       -1.1556540000        -4.9972060000        -3.0127690000 
H        1.5379890000        -7.9433070000         2.4361090000 
H       -0.1559220000        -8.1613000000         1.9927680000 
H       -0.7100620000        -6.5794550000         4.0674010000 
H        0.9914390000        -6.8056410000         4.5264220000 
H       -0.5123390000        -5.6806370000         1.8206420000 
H        1.7610420000        -6.6757700000         0.0971650000 
H        2.0219750000        -2.2823560000         2.9239440000 
H        2.9034560000        -3.5485360000         3.7963960000 
H        0.0134250000        -4.0791520000         3.2813710000 
H        3.7937860000        -1.4560770000         7.7835520000 
H        2.7258480000        -2.8582490000         7.8823400000 
H        1.5949450000        -0.5586250000         9.4186930000 
H        3.2394460000        -0.9222350000         9.9310750000 
H        0.7412710000        -2.9697530000        11.8851890000 
H        0.8260030000        -1.3143090000        11.4915100000 
H        0.7619740000        -1.4178760000         7.1297900000 
H        3.0817830000        -1.4953820000         5.1909270000 
H       -1.0605650000         2.8050180000         6.8396430000 
H        0.1039610000         2.6359530000         5.5163710000 
H       -0.2893710000         5.1185260000         7.2986780000 
H        1.6605970000         4.5840230000         4.9468750000 
H        1.3062740000         6.1859120000         5.6016240000 
H        2.0930550000         4.9786000000         6.6011350000 
H       -1.2413460000         6.1163160000         5.2372540000 
H       -2.1177540000         4.6293290000         5.5960720000 
H       -0.9005180000         4.6452250000         4.3104620000 
H        2.0142160000         2.9239360000         7.1829910000 
H        0.2043470000         0.6049990000         7.8608630000 
H       -0.1819560000         4.4437610000        11.2522180000 
H        1.2566260000         5.3268010000        10.8074110000 
H        0.3262200000         6.1563890000        14.4067460000 
H       -0.6136920000         6.0818810000        12.9936980000 
H        2.7169770000         3.3393150000        11.5628940000 
H        2.6334300000         2.6621170000         9.4135820000 
H       -2.0643930000         0.8594350000        14.9880460000 
H       -2.5969510000         2.1026760000        13.8486130000 
H       -1.3723540000         4.4441560000        16.2441740000 
H       -2.7234550000         3.8586550000        15.4077760000 
H        0.0757110000         0.5067600000        13.8301710000 
H       -0.5088940000         3.0995630000        12.6971890000 
H       -4.1831380000         0.0912330000         8.7621090000 
H       -2.8770170000         1.2817000000         8.7455430000 
H       -3.7573960000         2.1662930000        11.0106900000 
H       -5.1341410000         1.0814270000        10.8445140000 
H       -5.8238590000         2.1910560000         8.6940270000 
H       -4.3502410000         3.1798850000         8.6901180000 
H       -5.3017480000         3.8666920000        11.0693840000 
H       -7.5877560000         5.2400770000         8.0683450000 
H       -7.1289930000         5.4047890000        11.5289070000 
H       -7.8999280000         6.0787770000        10.1943850000 
H       -3.3592660000        -0.8729880000        10.9319910000 
H       -1.4792530000         1.4189490000        10.8252360000 
H       -2.0336710000        -4.9502010000         9.7267790000 
H       -0.4799260000        -4.0983160000         9.7189670000 
H       -0.0237590000        -5.1459510000         7.3894870000 
H       -1.4654240000        -6.1465710000         7.6277150000 
H       -0.3993720000        -6.9874670000         9.8495360000 
H        1.0731350000        -6.0763340000         9.4228230000 
H       -0.0249820000        -8.0003030000         7.4381220000 
H        3.2472170000        -8.7697530000         9.6953520000 
H        1.7209730000        -9.5469490000         6.6801470000 
H        2.8540940000       -10.0196450000         7.8198700000 
H       -1.0523500000        -2.8676520000         7.6397640000 
H       -3.3945730000        -2.5910860000         9.4797720000 
H       -4.5017500000        -4.1270960000         5.1827570000 
H       -3.8682820000        -5.7678470000         5.4348000000 
H       -1.6437680000        -4.0518780000         5.7202070000 
H       -3.7360200000        -6.4010680000        -0.3975050000 
H       -3.4397580000        -8.5903430000         0.7489300000 
H       -2.0950520000        -7.5099490000         1.1176780000 
H       -3.3617580000        -7.8032680000         2.3257700000 
H       -5.9979060000        -5.7557890000         0.4572500000 
H       -5.7533230000        -6.7041290000         1.9364970000 
H       -7.1281640000        -7.9318960000         0.2579900000 
H       -5.7816850000        -7.9319890000        -0.8804730000 
H       -5.6546510000        -8.8146160000         0.6491750000 
H       -2.3656300000        -5.1336800000         1.3143610000 
H       -4.8469050000        -5.3904490000         3.0005310000 
H       -3.3762260000        -1.0284320000         0.1054500000 
H       -3.2997480000        -0.4324930000        -1.5527320000 
H       -1.4278400000        -2.2686220000         1.0866100000 
H       -1.2399360000        -0.6677600000        -2.8979300000 
H        1.0223120000        -2.5778510000         1.0741240000 
H        1.2022250000        -0.9626650000        -2.9046380000 
H        2.3538700000        -1.9182110000        -0.9122970000 
H       -4.8589780000        -2.3958300000        -1.2710980000 
H       -2.4755510000        -4.1320290000        -0.7854630000 
H       -5.9044320000        -2.1543670000        -6.0594900000 
H       -4.7618560000        -1.0226840000        -6.7912290000 
H       -6.3529070000        -0.0166320000        -4.9022560000 
H       -4.6352050000         0.3622790000        -4.7944920000 
H       -5.0807940000        -0.6399090000        -2.6128800000 
H       -6.1592100000        -1.8975960000        -3.3070300000 
H       -3.9809730000        -3.4096830000        -5.4865380000 
H        0.3501760000        -4.3907100000        -6.5041730000 
H        1.3896210000        -3.3279080000        -7.5348390000 
H        0.0398790000        -4.9610830000        -8.6552060000 
H        0.2325220000        -1.9866150000        -5.8022340000 
H       -2.0111190000        -3.6131010000        -6.5439010000 
H       -2.2101720000        -1.0880060000       -10.9090270000 
H       -2.3628180000         0.6560650000       -11.2369990000 
H       -4.6657710000         0.5415060000       -11.6590040000 
H       -5.8324490000         0.1848440000       -10.4823030000 
H       -0.3865760000         0.2653330000        -9.8446980000 
H       -2.2953670000        -1.2662890000        -8.1424050000 
H       -2.8187060000         3.3830590000        -4.7590510000 
H       -2.9954440000         1.6782860000        -5.1904290000 
H       -4.8432170000         4.5380770000        -4.6567640000 
H       -4.4356130000         1.4527660000        -7.6292880000 
H       -7.1285260000         4.9921880000        -5.4353500000 
H       -6.7488270000         1.9264540000        -8.4215350000 
H       -8.6870580000         4.5882960000        -7.0101400000 
H       -2.3346440000         3.6894180000        -7.4373150000 
H       -1.8079970000         0.7929600000        -6.8460440000 
H        2.9051620000         2.7117920000        -3.8787640000 
H       -0.0307140000         1.7734430000        -3.6690060000 
H        1.1523790000         1.8788040000        -2.3629580000 
H        0.5595750000         3.3521490000        -3.1392330000 
H        2.6779080000         0.2282060000        -3.8131550000 
H        3.0998770000         0.7069770000        -5.4619380000 
H        1.4456540000         0.2573920000        -5.0917100000 
H        1.5681290000         4.1467120000        -5.2877840000 
H        0.4196390000         1.8188690000        -6.7798090000 
H       10.3344430000         1.4343410000        -5.9059280000 
H       10.3090970000         2.9142600000        -6.8598130000 
H        8.3859890000         0.4913010000        -7.1298210000 
H        9.3804810000         1.2099530000        -8.3944400000 
H        8.0943960000         3.3342500000        -8.3566100000 
H        6.8271050000         2.0701390000        -8.2089340000 
H        8.3216220000         1.9895360000        -4.6802480000 
H        8.5626050000         4.6755190000        -0.9339740000 
H        7.5625530000         5.7696310000        -1.8880940000 
H        8.2075940000         8.2644810000        -2.0019290000 
H       10.1421530000         5.5406870000         0.7067390000 
H        9.0135330000        10.1679320000        -0.6518360000 
H       10.9516980000         7.4412060000         2.0390070000 
H       11.0415520000         9.6917610000         2.2685780000 
H        9.4195270000         6.2080010000        -3.5091240000 
H        8.7194740000         3.3383930000        -2.9371380000 
H       11.9614780000         2.5912630000         0.3481660000 
H       13.6940810000         2.4716990000         0.0172790000 
H       13.2919730000        -0.4930640000        -1.8449750000 
H       14.1444630000         0.3330990000        -0.6256180000 
H       12.9408270000         4.6860380000        -0.6806380000 
H       10.7054820000         3.1915010000        -1.8754070000 
H        5.1539570000         2.8101590000        -7.6936980000 
C        5.3244470000         4.9945380000        -7.7043080000 
H        4.5013630000         5.1260470000        -8.4211520000 
H        5.2925360000         5.8513730000        -7.0175090000 
H        6.2672430000         5.0439700000        -8.2568590000 
H        3.9126130000         4.2366860000        -5.3574630000 
O       18.0329420000        -1.0566090000        -0.6648270000 
H       18.6794120000        -1.8053250000        -0.5867420000 
O        2.9241160000       -14.3229180000        -0.4132140000 
H        3.5330970000       -14.4222560000         0.3783250000 
O       -7.5244720000        11.2142860000        -0.7955900000 
H       -7.1004300000        12.0512920000        -0.4500400000 
O      -12.9547430000        -8.2491190000        -0.6670220000 
H      -12.7125820000        -8.9856150000        -1.2955790000 
O       -3.9586550000       -11.1972460000        -5.3912490000 
H       -4.6669240000       -11.1406720000        -6.0991160000 
O        0.4309010000        -9.6645860000         4.3227920000 
H        0.0923960000       -10.4896990000         4.7715390000 
O       -0.1713810000         9.9372090000         3.4735790000 
H       -0.8635430000        10.5179480000         3.9005140000 
O      -10.1560240000        -4.8563470000        -1.0253280000 
H      -10.8849360000        -4.5891230000        -1.6508040000 
O       14.9174240000         4.3716350000        -2.3566700000 
H       15.3915700000         4.3104730000        -3.2239980000 
