          92
0 1
N        9.1343660000         0.6889120000         0.0107210000 
C        7.8415640000         0.8544920000         0.7159250000 
C        6.7701970000         0.0435100000        -0.0093820000 
O        6.5931850000         0.1867230000        -1.2192280000 
C        7.4878410000         2.3394780000         0.6645380000 
C        8.8331520000         2.9901570000         0.3078830000 
C        9.5367580000         1.9707680000        -0.5945970000 
N        6.0303010000        -0.8098280000         0.7186310000 
C        4.9728840000        -1.6472070000         0.1518720000 
C        3.8137500000        -0.8117600000        -0.3959270000 
O        3.6989040000         0.3784840000        -0.0989530000 
C        4.5499420000        -2.5118730000         1.3435040000 
C        4.7726110000        -1.6195610000         2.5044020000 
C        6.1049460000        -0.9753920000         2.1792780000 
N        2.9662160000        -1.4149990000        -1.2451080000 
C        1.8136440000        -0.7347540000        -1.8415630000 
C        0.7360870000        -0.4617390000        -0.8018420000 
O        0.5357160000        -1.2487640000         0.1280420000 
C        1.3192470000        -1.7458790000        -2.8811440000 
C        2.5327470000        -2.5690020000        -3.1891430000 
C        3.1422700000        -2.7536480000        -1.8315990000 
N        0.0706090000         0.6754340000        -0.9474520000 
C       -1.0066830000         1.0464740000        -0.0455130000 
C       -2.2872220000         0.4716000000        -0.6521900000 
O       -2.5898510000         0.7319050000        -1.8173150000 
C       -1.1284610000         2.5852510000         0.0880020000 
C       -2.2405530000         2.9489210000         1.0593130000 
C        0.1928580000         3.1787810000         0.5605150000 
N       -3.0418630000        -0.3347540000         0.1210010000 
C       -4.2488040000        -0.9709060000        -0.3896060000 
C       -5.3698770000        -0.0328200000        -0.8154270000 
O       -5.1085510000         1.0429870000        -1.3490690000 
C       -2.4922320000        -0.6051510000         1.4756440000 
C       -3.6919820000        -0.9043010000         2.3212250000 
C       -3.4168830000        -1.2144080000         3.7416070000 
C       -3.8046440000        -2.2986260000         2.8082390000 
N       -6.6388650000        -0.4189630000        -0.5906870000 
C       -7.8248790000         0.3743570000        -0.9487710000 
C       -7.9773460000         1.7183830000        -0.2185140000 
O       -8.6685830000         1.7895590000         0.8306270000 
C       -8.9755550000        -0.5858730000        -0.6392210000 
C       -8.4395200000        -1.4003460000         0.5051120000 
C       -7.0363720000        -1.6933660000         0.0426950000 
H        7.0788220000         2.7095040000         1.6159770000 
H        6.7255870000         2.5502110000        -0.1119430000 
H        9.4287090000         3.1784420000         1.2187100000 
H        8.6981100000         3.9624860000        -0.1900540000 
H        9.2279110000         2.0792190000        -1.6532470000 
H       10.6411820000         2.0448300000        -0.5517040000 
H        8.0249250000         0.5126720000         1.7670650000 
H        9.0914000000        -0.0531240000        -0.6886800000 
H        5.1646030000        -3.4336810000         1.3980020000 
H        3.5058730000        -2.8573230000         1.2420440000 
H        4.7848320000        -2.1420610000         3.4831730000 
H        3.9738650000        -0.8494910000         2.6081560000 
H        6.2317900000         0.0013410000         2.6975900000 
H        6.9731900000        -1.6170260000         2.4503200000 
H        5.4218420000        -2.2502870000        -0.6847300000 
H        0.8964450000        -1.2453310000        -3.7721610000 
H        0.4932470000        -2.3675690000        -2.4760020000 
H        3.2254450000        -2.0477030000        -3.8854450000 
H        2.2875070000        -3.5255750000        -3.6874710000 
H        2.6128680000        -3.5162440000        -1.2170530000 
H        4.2140310000        -3.0453020000        -1.8719660000 
H        2.1703740000         0.2242300000        -2.3126160000 
H       -1.3855000000         3.0036680000        -0.9214410000 
H        0.1322190000         4.2690440000         0.6531150000 
H        1.0239740000         2.9625190000        -0.1244920000 
H        0.4991700000         2.7813570000         1.5382350000 
H       -3.2072870000         2.5321260000         0.7411950000 
H       -2.0407440000         2.5953830000         2.0776540000 
H       -2.3708100000         4.0367270000         1.1136980000 
H       -0.7201220000         0.6461820000         0.9717080000 
H        0.2123690000         1.2992390000        -1.7390270000 
H       -4.5789130000        -1.7671260000         0.3126420000 
H       -3.9620180000        -1.5178480000        -1.3393820000 
H       -9.2216500000        -1.2071200000        -1.5221620000 
H       -9.9117410000        -0.0521890000        -0.3805110000 
H       -9.0285960000        -2.3181690000         0.6944710000 
H       -8.4677990000        -0.8346710000         1.4579950000 
H       -6.3566220000        -1.9579190000         0.8818110000 
H       -6.9912840000        -2.5218810000        -0.6991520000 
H       -7.7629770000         0.6240080000        -2.0518700000 
H       -1.9859940000         0.2940700000         1.9073110000 
H       -1.7479420000        -1.4329290000         1.4247260000 
H       -4.5816730000        -0.3053240000         2.0848650000 
H       -4.0967750000        -0.8662840000         4.5239490000 
H       -2.3965250000        -1.1823560000         4.1388690000 
H       -3.0658540000        -3.0448160000         2.5097420000 
H       -4.7756070000        -2.7862580000         2.8645040000 
O       -7.3336870000         2.8878150000        -0.7313810000 
H       -7.6231820000         3.6746970000        -0.1998390000 
