         126
0 1
C        4.9001120000        -2.4561390000         0.2679580000 
C        5.1412200000        -1.0264480000         0.2359080000 
N        4.0720060000        -0.2827300000        -0.2557540000 
C        2.8759820000        -0.7640570000        -0.7177220000 
N        2.7289520000        -2.1370910000        -0.6825110000 
C        3.7304420000        -2.9367700000        -0.1898680000 
O        6.1641180000        -0.4690580000         0.5896920000 
O        1.9933770000        -0.0312030000        -1.1327960000 
C        1.4842030000        -2.7088740000        -1.2152350000 
C        0.2515440000        -2.3340280000        -0.3990610000 
C       -0.8484130000        -3.3706470000        -0.6036920000 
N       -2.1037270000        -2.8324790000        -0.6075960000 
C       -3.3321310000        -3.5068150000        -0.6271570000 
O       -0.5911570000        -4.5523360000        -0.7026120000 
N       -4.3856520000        -2.7057980000        -0.4233440000 
C       -5.6131630000        -3.2440560000        -0.4103150000 
C       -5.8376080000        -4.6093070000        -0.6203700000 
C       -4.7282140000        -5.4081950000        -0.8324870000 
C       -3.4451860000        -4.8787710000        -0.8377540000 
N       -6.6331590000        -2.3337940000        -0.1517330000 
C       -7.9963980000        -2.5590690000        -0.1639340000 
O       -8.5062060000        -3.6223170000        -0.4342380000 
C       -8.8014970000        -1.3216640000         0.1928870000 
C      -10.2982610000        -1.5940130000         0.2218190000 
C      -11.1042940000        -0.3472560000         0.5761960000 
C      -12.6086020000        -0.6054750000         0.6118090000 
C      -13.4215490000         0.6367490000         0.9684210000 
C      -14.9260350000         0.3789640000         1.0041380000 
C      -15.7368740000         1.6219950000         1.3618140000 
C      -17.2466560000         1.3589620000         1.3891680000 
C      -18.0292530000         2.5780500000         1.7788980000 
C      -18.9151920000         3.1911310000         1.0045230000 
H        5.6752400000        -3.1025040000         0.6480950000 
H        4.1862940000         0.7452450000        -0.2979810000 
H        3.5077060000        -3.9963700000        -0.1970640000 
H        1.5988720000        -3.7919080000        -1.2086550000 
H        1.3690610000        -2.3738390000        -2.2471900000 
H       -0.0885830000        -1.3281860000        -0.6398320000 
H        0.5006000000        -2.3647330000         0.6673570000 
H       -2.1581960000        -1.8177160000        -0.6532070000 
H       -6.8414050000        -4.9990730000        -0.6099860000 
H       -4.8642350000        -6.4707510000        -0.9966140000 
H       -2.5663960000        -5.4804230000        -0.9977980000 
H       -6.3447210000        -1.3954820000         0.1198440000 
H       -8.5576650000        -0.5349700000        -0.5297370000 
H       -8.4474540000        -0.9430390000         1.1577240000 
H      -10.5056110000        -2.3905030000         0.9425080000 
H      -10.6134380000        -1.9804720000        -0.7516130000 
H      -10.8904280000         0.4459500000        -0.1504990000 
H      -10.7791330000         0.0340980000         1.5517280000 
H      -12.8219030000        -1.3997530000         1.3369700000 
H      -12.9337040000        -0.9847700000        -0.3642260000 
H      -13.2076040000         1.4310260000         0.2431850000 
H      -13.0956000000         1.0152160000         1.9447840000 
H      -15.1410290000        -0.4155130000         1.7288650000 
H      -15.2524150000         0.0016880000         0.0276030000 
H      -15.5279600000         2.4201220000         0.6411900000 
H      -15.4163180000         1.9965470000         2.3411320000 
H      -17.4496310000         0.5511110000         2.1025820000 
H      -17.5783030000         1.0084120000         0.4066210000 
H      -17.8210020000         2.9815360000         2.7686850000 
H      -19.4410590000         4.0795000000         1.3332500000 
H      -19.1459460000         2.8187170000         0.0111640000 
C       -4.9000610000         2.4562960000         0.2671620000 
C       -5.1411850000         1.0266030000         0.2351590000 
N       -4.0719410000         0.2828390000        -0.2563770000 
C       -2.8758820000         0.7641410000        -0.7182730000 
N       -2.7288610000         2.1371750000        -0.6831760000 
C       -3.7303610000         2.9368950000        -0.1906160000 
O       -6.1641130000         0.4692590000         0.5889160000 
O       -1.9932210000         0.0312660000        -1.1332060000 
C       -1.4840020000         2.7089020000        -1.2157010000 
C       -0.2515670000         2.3343250000        -0.3990600000 
C        0.8484350000         3.3708850000        -0.6037340000 
N        2.1037480000         2.8327220000        -0.6073520000 
C        3.3321700000         3.5070290000        -0.6269240000 
O        0.5911850000         4.5525490000        -0.7029750000 
N        4.3856530000         2.7059770000        -0.4230760000 
C        5.6131850000         3.2441870000        -0.4100360000 
C        5.8376770000         4.6094270000        -0.6201290000 
C        4.7283150000         5.4083530000        -0.8322720000 
C        3.4452650000         4.8789760000        -0.8375390000 
N        6.6331480000         2.3338990000        -0.1514220000 
C        7.9964000000         2.5591380000        -0.1635920000 
O        8.5062420000         3.6223500000        -0.4339620000 
C        8.8014500000         1.3217060000         0.1932380000 
C       10.2982290000         1.5939810000         0.2221020000 
C       11.1042190000         0.3471710000         0.5763910000 
C       12.6085440000         0.6053060000         0.6119100000 
C       13.4214480000        -0.6369850000         0.9683860000 
C       14.9259530000        -0.3792910000         1.0039880000 
C       15.7367480000        -1.6224000000         1.3614980000 
C       17.2465510000        -1.3594690000         1.3887070000 
C       18.0291060000        -2.5786380000         1.7782730000 
C       18.9148860000        -3.1917550000         1.0037460000 
H       -5.6752100000         3.1026790000         0.6472230000 
H       -4.1862320000        -0.7451520000        -0.2985370000 
H       -3.5076060000         3.9964910000        -0.1978520000 
H       -1.5987410000         3.7919300000        -1.2094430000 
H       -1.3685430000         2.3735850000        -2.2475260000 
H        0.0886110000         1.3283940000        -0.6394020000 
H       -0.5009220000         2.3654130000         0.6672760000 
H        2.1582330000         1.8179590000        -0.6527170000 
H        6.8414870000         4.9991590000        -0.6097330000 
H        4.8643800000         6.4709010000        -0.9964160000 
H        2.5664910000         5.4806440000        -0.9976190000 
H        6.3446940000         1.3956210000         0.1202620000 
H        8.5575590000         0.5350070000        -0.5293640000 
H        8.4474170000         0.9431170000         1.1580910000 
H       10.5056590000         2.3904350000         0.9428080000 
H       10.6133730000         1.9804570000        -0.7513330000 
H       10.8902650000        -0.4459990000        -0.1503160000 
H       10.7791010000        -0.0341980000         1.5519320000 
H       12.8219440000         1.3995300000         1.3371020000 
H       12.9335930000         0.9846400000        -0.3641270000 
H       13.2073950000        -1.4312080000         0.2431230000 
H       13.0955590000        -1.0154880000         1.9447550000 
H       15.1410620000         0.4151200000         1.7287520000 
H       15.2522660000        -0.0019660000         0.0274500000 
H       15.5277060000        -2.4204650000         0.6408430000 
H       15.4162710000        -1.9969950000         2.3408260000 
H       17.4496600000        -0.5516770000         2.1021490000 
H       17.5781140000        -1.0088820000         0.4061450000 
H       17.8209580000        -2.9821540000         2.7680700000 
H       19.4407260000        -4.0801830000         1.3323580000 
H       19.1455320000        -2.8193140000         0.0103720000 
