          63
0 1
C       10.1570750000        -0.9425370000        -0.8503460000 
C       10.1709330000        -2.3535470000        -0.5156140000 
N        9.0373500000        -2.7845520000         0.1679790000 
C        7.9702960000        -2.0205650000         0.5594850000 
N        8.0399060000        -0.6807970000         0.2304780000 
C        9.1155550000        -0.1845810000        -0.4637260000 
O       11.0635870000        -3.1386050000        -0.7783120000 
O        7.0164180000        -2.4889240000         1.1587540000 
C        6.9443730000         0.1933610000         0.6729520000 
C        5.6106840000        -0.1282120000         0.0066420000 
C        4.7067340000         1.1001970000         0.0221020000 
N        3.3859730000         0.7967290000         0.1922200000 
C        2.2844970000         1.6594720000         0.1114860000 
O        5.1541870000         2.2149180000        -0.1497630000 
N        1.1054050000         1.0250430000         0.1290180000 
C       -0.0191410000         1.7497630000         0.0462390000 
C       -0.0087140000         3.1465600000        -0.0389950000 
C        1.2256800000         3.7711540000        -0.0501470000 
C        2.4057040000         3.0438500000         0.0209620000 
N       -1.1865860000         0.9929750000         0.0329800000 
C       -2.4923380000         1.4447540000         0.0485540000 
O       -2.8060940000         2.6119910000         0.0992860000 
C       -3.5072210000         0.3157770000         0.0027790000 
C       -4.9400780000         0.8270140000        -0.0267560000 
C       -5.9571790000        -0.3103000000        -0.0679650000 
C       -7.4001970000         0.1872140000        -0.1006010000 
C       -8.4235550000        -0.9450290000        -0.1446610000 
C       -9.8668270000        -0.4479250000        -0.1772750000 
C      -10.8883140000        -1.5815320000        -0.2222470000 
C      -12.3353470000        -1.0767260000        -0.2476170000 
C      -13.3276420000        -2.1988050000        -0.3301810000 
C      -14.2387880000        -2.4760400000         0.5935960000 
H       10.9940340000        -0.5318340000        -1.3925050000 
H        8.9905710000        -3.7850300000         0.4296290000 
H        9.0642270000         0.8751560000        -0.6799150000 
H        7.2280370000         1.2153130000         0.4253560000 
H        6.8548190000         0.1061810000         1.7568390000 
H        5.1347330000        -0.9885010000         0.4743570000 
H        5.7814130000        -0.3640130000        -1.0495140000 
H        3.1753470000        -0.1615750000         0.4606620000 
H       -0.9362510000         3.6907370000        -0.0953990000 
H        1.2719010000         4.8518070000        -0.1173700000 
H        3.3779950000         3.5069120000         0.0111870000 
H       -1.0711630000        -0.0165070000        -0.0377700000 
H       -3.3374060000        -0.3320080000         0.8699980000 
H       -3.2905850000        -0.3110860000        -0.8688410000 
H       -5.0723100000         1.4783750000        -0.8956790000 
H       -5.1165360000         1.4566400000         0.8499930000 
H       -5.8175550000        -0.9583550000         0.8058370000 
H       -5.7702510000        -0.9371500000        -0.9482720000 
H       -7.5389950000         0.8365060000        -0.9731770000 
H       -7.5873420000         0.8121960000         0.7806330000 
H       -8.2841080000        -1.5944160000         0.7279580000 
H       -8.2354770000        -1.5694230000        -1.0264340000 
H      -10.0072460000         0.2019280000        -1.0494080000 
H      -10.0554960000         0.1754430000         0.7049360000 
H      -10.7547530000        -2.2347290000         0.6469160000 
H      -10.7051680000        -2.2018600000        -1.1075490000 
H      -12.4609910000        -0.4136630000        -1.1121070000 
H      -12.5329610000        -0.4769470000         0.6465230000 
H      -13.2604480000        -2.8300270000        -1.2149930000 
H      -14.9214960000        -3.3106520000         0.4880940000 
H      -14.3327770000        -1.8701560000         1.4895720000 
