         137
0 1
Si        1.4548030000        -1.4157750000         4.4371190000 
O        2.3578270000        -5.0872210000         1.9064980000 
H        6.1622940000         4.9906080000        -1.9038070000 
Si        0.8403320000        -5.4039970000         1.5540620000 
O        2.3604110000        -5.0968960000        -1.8584110000 
H        6.1596730000         5.0004360000         1.9050820000 
Si        0.8424400000        -5.4118950000        -1.5064260000 
O       -1.9477890000        -3.5643450000         4.1462050000 
H        0.5869670000        -6.8436470000        -1.7205080000 
Si       -0.3828570000        -3.8249520000         3.8693540000 
O       -1.9421010000        -3.5856540000        -4.1118660000 
H        0.5845600000        -6.8346270000         1.7751780000 
Si       -0.3775540000        -3.8448220000        -3.8315180000 
O       -3.7592130000         4.0290060000        -1.9378630000 
H       -3.5593270000        -5.4909990000         3.8279650000 
Si        1.3832160000         1.5660340000        -3.7494380000 
O       -5.4387000000         4.5160870000        -0.0061630000 
H       -3.5540830000        -5.5106450000        -3.7859060000 
Si        1.4608350000        -1.4386220000        -4.4091630000 
O       -4.4685080000        -3.1740980000         3.9126610000 
H       -3.4281720000        -4.3277920000        -5.8774800000 
Si       -3.3577170000        -4.1748120000         4.4508100000 
O       -4.4631400000        -3.1942160000        -3.8838110000 
H       -6.8278050000        -4.0387700000        -3.8539590000 
Si       -3.3516110000        -4.1976880000        -4.4152570000 
O       -5.9888850000         2.8021580000         1.8664850000 
H       -6.3572540000        -1.8816540000        -4.8666050000 
Si       -5.2960940000         4.1839860000         1.5369630000 
O       -5.9863110000         2.7925160000        -1.8705990000 
H       -8.5629010000        -1.4117880000        -1.8491250000 
Si       -5.2939780000         4.1760320000        -1.5472920000 
O       -6.2142010000        -2.0877090000         2.4022500000 
H       -7.1968290000         1.8304430000        -3.8538590000 
Si       -6.0149360000        -2.7995780000         3.8138300000 
O       -6.2109060000        -2.1000530000        -2.3814320000 
H       -8.4331680000         2.2747490000        -1.8466490000 
Si       -6.0097000000        -2.8191950000        -3.7890430000 
O       -6.8076600000         0.3731500000         1.8900900000 
H       -8.4357080000         2.2842680000         1.8418380000 
Si       -7.1419640000         1.8450550000         2.3842640000 
O       -6.8050620000         0.3634130000        -1.8827960000 
H       -7.2021360000         1.8503290000         3.8530150000 
Si       -7.1386790000         1.8327490000        -2.3850180000 
O       -6.8306030000        -1.4269100000         0.0082120000 
H       -8.5654570000        -1.4022080000         1.8631610000 
Si       -7.1573600000        -1.1264900000         1.5437180000 
O        4.9349670000         3.9193620000         0.0026190000 
H       -6.3639700000        -1.8564900000         4.8860600000 
Si       -7.1552430000        -1.1344190000        -1.5291710000 
O        5.2749010000         0.8317410000         3.7697530000 
H       -6.8331340000        -4.0188040000         3.8839120000 
Si        6.0592990000        -0.3643850000         4.4474630000 
O        5.2800780000         0.8123420000        -3.7481390000 
H       -3.4362920000        -4.2973670000         5.9135770000 
Si        6.0654050000        -0.3872630000        -4.4186060000 
O        4.7952160000         2.9382010000         2.3650670000 
H        0.0722800000        -4.7122180000         4.9494610000 
Si        4.9253190000         4.2887390000         1.5438100000 
O        4.7984730000         2.9260080000        -2.3550200000 
H        4.2842740000        -3.7181510000         4.8981970000 
Si        4.9274230000         4.2807700000        -1.5405240000 
O        5.4639750000        -1.7383620000         3.9157970000 
H        5.9353290000        -0.2778110000         5.9096600000 
Si        4.4620200000         2.1931320000         3.7282940000 
O        5.4693450000        -1.7584790000        -3.8806760000 
H       -5.9225210000         5.2651590000        -2.3086370000 
Si        4.4671530000         2.1738780000        -3.7148110000 
O        3.7241590000         5.2510390000        -1.8702460000 
H       -5.9256910000         5.2770290000         2.2918470000 
Si        4.2121080000        -2.7208330000         3.8206690000 
O        4.3275410000        -3.4586110000         2.4130480000 
H        5.9434490000        -0.3082360000        -5.8813980000 
Si        4.2173420000        -2.7404510000        -3.7822040000 
O        4.3307990000        -3.4709410000        -2.3706360000 
H        1.4998030000        -1.3994840000        -5.8781430000 
Si        2.2779130000         5.6440930000        -2.3886010000 
O        4.0432630000        -4.3277480000         0.0232750000 
H        4.2909900000        -3.7433160000        -4.8544690000 
Si        3.8686980000        -4.7288610000         1.5605890000 
O        0.7364990000         2.1112300000        -2.4013270000 
H        0.0790670000        -4.7376490000        -4.9064040000 
Si        3.8708530000        -4.7369050000        -1.5122400000 
O        1.1173610000         0.0211760000         3.8166480000 
H        4.8626900000         3.0426310000         4.8590480000 
Si       -2.3756510000         4.6814570000        -2.3850280000 
O       -3.7619130000         4.0389930000         1.9304880000 
H        2.2259690000         5.6142760000        -3.8571340000 
Si        0.2901390000         3.3654830000        -1.5639640000 
O        3.7215120000         5.2606630000         1.8667590000 
H        1.9947710000         7.0119030000        -1.9310050000 
Si        1.3493770000         1.5947830000         3.7670690000 
O        2.9187480000         1.8882970000         3.8030310000 
H       -2.2715410000         4.7654440000        -3.8488400000 
Si        2.2480370000         5.7155700000         2.3648700000 
O        1.2068760000         4.6358740000        -1.8042610000 
H       -2.2773050000         6.0324930000        -1.8141990000 
Si       -2.3591190000         4.6879450000         2.3476510000 
O       -1.2188460000         3.7371610000        -1.8358710000 
H        0.7308040000         2.1977670000        -4.9052500000 
O        1.1227530000         0.0015780000        -3.7966120000 
O        0.7894270000         2.0502830000         2.3694310000 
H        4.8693760000         3.0175780000        -4.8494150000 
O        0.3359500000        -2.4332110000        -3.8963700000 
O        0.5627730000         2.6943480000        -0.0745420000 
H        0.7366040000         2.2083870000         4.8843530000 
O       -0.1034670000        -4.5157730000        -2.4147940000 
O       -1.3770770000         3.6687580000         1.6192650000 
H        2.2193100000         5.6338050000         3.8201620000 
O        0.3305770000        -2.4130290000         3.9278810000 
O        1.1257430000         4.8556260000         1.6270220000 
H       -2.2778640000         4.7792250000         3.8008550000 
O        0.5162080000        -5.0497760000         0.0227210000 
H        1.4916730000        -1.3690800000         5.9059160000 
H        1.9893520000         7.0257250000         1.9124020000 
O       -0.1068200000        -4.5032040000         2.4564890000 
H        4.7438090000        -5.8631240000         1.8901340000 
H       -2.2799100000         6.0159360000         1.8047420000 
O        2.9240420000         1.8688790000        -3.7902780000 
H        4.7463940000        -5.8727180000        -1.8347550000 
H        0.7096140000         1.7269850000        -0.0394660000 
O        2.8616780000        -1.8883580000         3.8904980000 
H        7.5012960000        -0.3386730000         4.1630890000 
Al        0.2694030000         3.4158460000         1.5562870000 
O        2.8670110000        -1.9083560000        -3.8581810000 
H        7.5070100000        -0.3600760000        -4.1323820000 
C        2.0514270000        -1.3169770000        -0.1695840000 
C        1.5151990000        -0.4976670000         0.8212440000 
C        0.1298710000        -0.3853840000         0.9574710000 
C       -0.7152320000        -1.0564940000         0.0807370000 
C       -0.1805520000        -1.8597020000        -0.9130940000 
C        1.2003570000        -2.0035760000        -1.0253020000 
H        3.1252930000        -1.4358850000        -0.2643460000 
H        2.1722440000         0.0284170000         1.5019420000 
H       -0.2866500000         0.2082430000         1.7557800000 
H       -1.7893290000        -0.9616940000         0.1866930000 
H       -0.8503380000        -2.3780310000        -1.5819880000 
H        1.6251160000        -2.6403030000        -1.7884890000 
