         125
0 1
Si       -1.4753230000        -1.5273540000        -4.4201490000 
O       -2.3501920000        -5.1801890000        -1.8529700000 
H       -6.2311560000         4.9058000000         1.8572820000 
Si       -0.8303060000        -5.4818640000        -1.4975970000 
O       -2.3524900000        -5.1523850000         1.9118490000 
H       -6.2288240000         4.8777110000        -1.9515160000 
Si       -0.8321820000        -5.4592950000         1.5628180000 
O        1.9435650000        -3.6469230000        -4.1083010000 
H       -0.5657900000        -6.8868550000         1.7911150000 
Si        0.3806800000        -3.9166800000        -3.8286620000 
O        1.9385040000        -3.5860240000         4.1495730000 
H       -0.5636480000        -6.9126340000        -1.7044880000 
Si        0.3759620000        -3.8598890000         3.8720270000 
O        3.6973950000         4.0202340000         1.8996020000 
H        3.5697600000        -5.5579730000        -3.7711020000 
Si       -1.4260080000         1.5363030000         3.7362960000 
O        5.3730110000         4.5008380000        -0.0370750000 
H        3.5650950000        -5.5018240000         3.8425870000 
Si       -1.4806830000        -1.4621370000         4.4259220000 
O        4.4612490000        -3.2351680000        -3.8789890000 
H        3.4302880000        -4.2991920000         5.9222940000 
Si        3.3580880000        -4.2496290000        -4.4069980000 
O        4.4564730000        -3.1776730000         3.9172980000 
H        6.8275050000        -4.0044350000         3.8955460000 
Si        3.3526550000        -4.1842450000         4.4588580000 
O        5.9361400000         2.7725860000        -1.8926340000 
H        6.3405820000        -1.8409890000         4.8867200000 
Si        5.2328540000         4.1523070000        -1.5767990000 
O        5.9338500000         2.8001460000         1.8443610000 
H        8.5424130000        -1.3844030000         1.8644190000 
Si        5.2309730000         4.1750560000         1.5073830000 
O        6.1986940000        -2.1205150000        -2.3797030000 
H        7.1517780000         1.8671290000         3.8369440000 
Si        6.0047820000        -2.8479060000        -3.7840970000 
O        6.1957630000        -2.0852380000         2.4038650000 
H        8.3845810000         2.3008310000         1.8252450000 
Si        6.0001240000        -2.7918380000         3.8185950000 
O        6.7734060000         0.3497750000        -1.8921550000 
H        8.3868410000         2.2736320000        -1.8631540000 
Si        7.0964520000         1.8191900000        -2.4010080000 
O        6.7710950000         0.3775960000         1.8806410000 
H        7.1565000000         1.8102940000        -3.8697460000 
Si        7.0935300000         1.8543620000         2.3681610000 
O        6.8101760000        -1.4312250000         0.0075540000 
H        8.5446870000        -1.4117790000        -1.8477790000 
Si        7.1345470000        -1.1436320000        -1.5309110000 
O       -4.9958060000         3.8250050000        -0.0385430000 
H        6.3465570000        -1.9129110000        -4.8657120000 
Si        7.1326640000        -1.1209710000         1.5419050000 
O       -5.3124050000         0.6975160000        -3.7746950000 
H        6.8322470000        -4.0614980000        -3.8421410000 
Si       -6.0877010000        -0.5112450000        -4.4403550000 
O       -5.3170110000         0.7529560000         3.7430180000 
H        3.4375130000        -4.3861450000        -5.8684820000 
Si       -6.0931330000        -0.4458630000         4.4255030000 
O       -4.8487130000         2.8214570000        -2.3911200000 
H       -0.0677410000        -4.8181030000        -4.8998190000 
Si       -4.9890610000         4.1790760000        -1.5833370000 
O       -4.8516110000         2.8562510000         2.3288540000 
H       -4.2871870000        -3.8557070000        -4.8579010000 
Si       -4.9909300000         4.2018120000         1.5009230000 
O       -5.4818900000        -1.8752810000        -3.8951100000 
H       -5.9644770000        -0.4382960000        -5.9033580000 
Si       -4.5099230000         2.0654080000        -3.7469040000 
O       -5.4866680000        -1.8177850000         3.9011770000 
H        5.8512380000         5.2764710000         2.2577600000 
Si       -4.5144910000         2.1202490000         3.6960250000 
O       -3.7950790000         5.1844590000         1.8208070000 
H        5.8540580000         5.2425440000        -2.3426140000 
Si       -4.2225650000        -2.8471860000        -3.7903680000 
O       -4.3322920000        -3.5717660000        -2.3754540000 
H       -5.9717010000        -0.3513430000         5.8874190000 
Si       -4.2272220000        -2.7911180000         3.8123240000 
O       -4.3351860000        -3.5364740000         2.4081160000 
H       -1.5198660000        -1.4086680000         5.8944450000 
Si       -2.3518420000         5.5936690000         2.3350300000 
O       -4.0412620000        -4.4148660000         0.0228190000 
H       -4.2931620000        -3.7837860000         4.8945330000 
Si       -3.8637310000        -4.8299280000        -1.5104470000 
O       -0.7835410000         2.0729590000         2.3827370000 
H       -0.0737790000        -4.7454200000         4.9558120000 
Si       -3.8656520000        -4.8073830000         1.5623100000 
O       -1.1488100000        -0.0817640000        -3.8140640000 
H       -4.9171210000         2.9005240000        -4.8860090000 
Si        2.3089250000         4.6665420000         2.3404300000 
O        3.6998010000         3.9917120000        -1.9686570000 
H       -2.2995900000         5.5788760000         3.8037810000 
Si       -0.3468030000         3.3221750000         1.5328650000 
O       -3.7927160000         5.1568830000        -1.9161090000 
H       -2.0791610000         6.9589710000         1.8637970000 
Si       -1.3928120000         1.4904440000        -3.7801290000 
O       -2.9643770000         1.7716150000        -3.8188050000 
H        2.2042600000         4.7643080000         3.8033460000 
Si       -2.3227790000         5.6180240000        -2.4189210000 
O       -1.2731830000         4.5878720000         1.7606190000 
H        2.2002510000         6.0110370000         1.7561870000 
Si        2.2920770000         4.6257660000        -2.3920770000 
O        1.1593210000         3.7080340000         1.8008570000 
H       -0.7783650000         2.1844710000         4.8856730000 
O       -1.1536240000        -0.0255740000         3.7990140000 
O       -0.8362720000         1.9640970000        -2.3871710000 
H       -4.9230700000         2.9721180000         4.8222230000 
O       -0.3482780000        -2.4531810000         3.9229110000 
O       -0.6143960000         2.6341810000         0.0502370000 
H       -0.7847970000         2.0975430000        -4.9035500000 
O        0.1069180000        -4.5469870000         2.4620910000 
O        1.3178740000         3.6064290000        -1.6534470000 
H       -2.2935120000         5.5219890000        -3.8733300000 
O       -0.3434990000        -2.5108890000        -3.9011530000 
O       -1.1939210000         4.7740500000        -1.6726930000 
H        2.2100470000         4.7019460000        -3.8461070000 
O       -0.5088060000        -5.1099480000         0.0300970000 
H       -1.5126310000        -1.4955730000        -5.8893340000 
H       -2.0740630000         6.9345540000        -1.9795570000 
O        0.1099010000        -4.5829110000        -2.4090760000 
H       -4.7301890000        -5.9740540000        -1.8285640000 
H        2.2027780000         5.9584570000        -1.8624100000 
O       -2.9690950000         1.8277870000         3.7743210000 
H       -4.7324910000        -5.9465680000         1.8962360000 
H       -0.7538610000         1.6654250000         0.0248160000 
O       -2.8785240000        -2.0051790000        -3.8686630000 
H       -7.5298360000        -0.4936940000        -4.1560610000 
Al       -0.3266270000         3.3416150000        -1.5877360000 
O       -2.8832690000        -1.9480400000         3.8798320000 
H       -7.5349200000        -0.4325160000         4.1392130000 
