          12
0 1
C        2.0514270000        -1.3169770000        -0.1695840000 
C        1.5151990000        -0.4976670000         0.8212440000 
C        0.1298710000        -0.3853840000         0.9574710000 
C       -0.7152320000        -1.0564940000         0.0807370000 
C       -0.1805520000        -1.8597020000        -0.9130940000 
C        1.2003570000        -2.0035760000        -1.0253020000 
H        3.1252930000        -1.4358850000        -0.2643460000 
H        2.1722440000         0.0284170000         1.5019420000 
H       -0.2866500000         0.2082430000         1.7557800000 
H       -1.7893290000        -0.9616940000         0.1866930000 
H       -0.8503380000        -2.3780310000        -1.5819880000 
H        1.6251160000        -2.6403030000        -1.7884890000 
