          72
0 1
O        3.5110800000        -1.2880630000        -0.1371770000 
O       -2.6992980000        -2.4185080000        -0.3548380000 
O       -0.5934260000         3.5474680000        -0.1005480000 
C        1.4474500000        -0.0767090000         0.0673220000 
C        0.7430430000        -1.2756860000         0.0791270000 
H        1.2840340000        -2.2177840000         0.1095320000 
C       -0.6550420000        -1.2695790000         0.0683560000 
C       -1.3353080000        -0.0580460000         0.0321840000 
H       -2.4221330000        -0.0611040000         0.0311520000 
C       -0.6345540000         1.1506540000         0.0069370000 
C        0.7543140000         1.1384850000         0.0224200000 
H        1.2967770000         2.0795190000        -0.0113750000 
C        2.9486950000        -0.0271820000         0.1769830000 
H        3.3465790000         0.7406370000        -0.4982900000 
H        3.2275170000         0.2460350000         1.2062680000 
C        4.8694330000        -1.3868200000        -0.0838550000 
C        5.7191270000        -0.3364850000         0.2730780000 
H        5.3224010000         0.6375690000         0.5382970000 
C        7.1029430000        -0.5258430000         0.2619520000 
C        7.6234770000        -1.7665640000        -0.1011510000 
H        8.7017080000        -1.9120760000        -0.1140040000 
C        6.7819730000        -2.8265090000        -0.4461670000 
C        5.4049430000        -2.6272040000        -0.4326140000 
H        4.7248650000        -3.4310390000        -0.7009310000 
C        8.0274570000         0.6145480000         0.6117210000 
H        8.5246620000         1.0058280000        -0.2831540000 
H        8.8106200000         0.2899890000         1.3035000000 
H        7.4825350000         1.4396420000         1.0789650000 
C        7.3493140000        -4.1780320000        -0.8006380000 
H        6.7215220000        -4.6912840000        -1.5345550000 
H        7.4116680000        -4.8192500000         0.0857080000 
H        8.3571170000        -4.0881260000        -1.2149980000 
C       -1.4080700000        -2.5668270000         0.2087140000 
H       -0.8696330000        -3.3877990000        -0.2819370000 
H       -1.5096930000        -2.8142540000         1.2762730000 
C       -3.5782060000        -3.4396560000        -0.1668810000 
C       -4.8809910000        -3.2143570000        -0.6278720000 
H       -5.1086660000        -2.2577710000        -1.0925070000 
C       -5.8560530000        -4.1944850000        -0.4838840000 
C       -5.5172030000        -5.4097730000         0.1247790000 
H       -6.2677600000        -6.1926810000         0.2111240000 
C       -4.2296940000        -5.6405450000         0.5949860000 
C       -3.2511570000        -4.6513030000         0.4369260000 
H       -2.2406860000        -4.8548520000         0.7742540000 
C       -3.8746340000        -6.9242900000         1.3004630000 
H       -3.8163660000        -6.7661190000         2.3833220000 
H       -2.9005620000        -7.2969140000         0.9666250000 
H       -4.6234230000        -7.6986440000         1.1096450000 
C       -7.2642580000        -3.9477410000        -0.9549750000 
H       -7.9294190000        -3.7444630000        -0.1059450000 
H       -7.6678940000        -4.8162900000        -1.4869920000 
H       -7.3047030000        -3.0891910000        -1.6340800000 
C       -1.4398870000         2.4229860000        -0.0077310000 
H       -2.1433940000         2.4126430000        -0.8529950000 
H       -2.0338470000         2.4856590000         0.9176500000 
C       -1.1997780000         4.7651610000        -0.0369780000 
C       -2.5780710000         4.9446490000         0.0416010000 
H       -3.2551790000         4.0970440000         0.0422050000 
C       -3.1153880000         6.2372910000         0.1042760000 
C       -2.2611820000         7.3320490000         0.0840820000 
H       -2.6781320000         8.3370030000         0.1131190000 
C       -0.8714470000         7.1625920000        -0.0061960000 
C       -0.3478950000         5.8775240000        -0.0653590000 
H        0.7228300000         5.7063810000        -0.1325800000 
C       -4.6111450000         6.4092260000         0.1522630000 
H       -5.0456460000         6.1344210000        -0.8160050000 
H       -4.8876920000         7.4462890000         0.3594420000 
H       -5.0612030000         5.7661150000         0.9161470000 
C        0.0257840000         8.3728860000        -0.0541860000 
H       -0.2826340000         9.0469440000        -0.8619750000 
H        1.0693550000         8.0930520000        -0.2187420000 
H       -0.0303210000         8.9412100000         0.8802410000 
