         144
0 1
O        5.4470980000        -1.5925630000        -0.5105730000 
O        2.0288850000         3.6384240000        -1.4307200000 
O       -0.7895350000        -2.0295910000        -1.5801900000 
C        3.2187980000        -0.9846850000        -1.1685450000 
C        3.6060270000         0.3482110000        -1.2540960000 
H        4.6528120000         0.6137410000        -1.1321120000 
C        2.6559000000         1.3409560000        -1.5119920000 
C        1.3206660000         0.9881800000        -1.6687700000 
H        0.5889170000         1.7645670000        -1.8760480000 
C        0.9217120000        -0.3474750000        -1.5712420000 
C        1.8707660000        -1.3299330000        -1.3194220000 
H        1.5556640000        -2.3661320000        -1.2302300000 
C        4.2153880000        -2.0997480000        -0.9906220000 
H        3.8183310000        -2.8464600000        -0.2916090000 
H        4.3818990000        -2.5943350000        -1.9598870000 
C        6.4441290000        -2.4970810000        -0.2972770000 
C        6.3241940000        -3.8683590000        -0.5376900000 
H        5.4019630000        -4.2893690000        -0.9233770000 
C        7.3925420000        -4.7214620000        -0.2517250000 
C        8.5732290000        -4.1934060000         0.2672380000 
H        9.4034890000        -4.8590990000         0.4940510000 
C        8.7076130000        -2.8225220000         0.4980300000 
C        7.6371160000        -1.9814090000         0.2104830000 
H        7.7096090000        -0.9112290000         0.3840060000 
C        7.2572510000        -6.2078140000        -0.4753560000 
H        7.1603740000        -6.7411910000         0.4771340000 
H        8.1362500000        -6.6118020000        -0.9866270000 
H        6.3761470000        -6.4407150000        -1.0798800000 
C       10.0009140000        -2.2517780000         1.0231600000 
H        9.8211830000        -1.3724840000         1.6482380000 
H       10.6535760000        -1.9425880000         0.1990900000 
H       10.5465670000        -2.9892670000         1.6179850000 
C        3.1026420000         2.7634280000        -1.7278540000 
H        3.9724410000         3.0005060000        -1.1018430000 
H        3.3925790000         2.8973270000        -2.7810570000 
C        2.2004770000         4.9539720000        -1.7314510000 
C        1.0810300000         5.7731650000        -1.5409800000 
H        0.1617950000         5.3192450000        -1.1780160000 
C        1.1508020000         7.1332690000        -1.8191490000 
C        2.3552390000         7.6727190000        -2.2887660000 
H        2.4252240000         8.7419440000        -2.4774350000 
C        3.4698650000         6.8672540000        -2.4909220000 
C        3.3935100000         5.4998020000        -2.1987580000 
H        4.2790310000         4.8865000000        -2.3251990000 
C        4.7508010000         7.4326830000        -3.0488280000 
H        4.8600810000         7.1695340000        -4.1070380000 
H        5.6194000000         7.0320030000        -2.5158150000 
H        4.7688710000         8.5233370000        -2.9659430000 
C       -0.0569290000         8.0137100000        -1.6400900000 
H       -0.5080800000         8.2587030000        -2.6101690000 
H        0.2039800000         8.9591380000        -1.1517930000 
H       -0.8157130000         7.5166340000        -1.0260160000 
C       -0.5379690000        -0.6555930000        -1.7761820000 
H       -1.1487530000        -0.0599970000        -1.0821310000 
H       -0.8271640000        -0.3715920000        -2.8002700000 
C       -2.0623880000        -2.4495960000        -1.8208630000 
C       -3.1084900000        -1.6005410000        -2.1713750000 
H       -2.9569970000        -0.5298650000        -2.2586230000 
C       -4.3886950000        -2.1216580000        -2.4017520000 
C       -4.6013850000        -3.4880390000        -2.2739370000 
H       -5.5994770000        -3.8917010000        -2.4335950000 
C       -3.5567410000        -4.3509990000        -1.9102750000 
C       -2.2906730000        -3.8256980000        -1.6863660000 
H       -1.4562910000        -4.4626340000        -1.4064010000 
C       -5.5138640000        -1.1805300000        -2.7444250000 
H       -5.7740020000        -0.5802500000        -1.8647410000 
H       -6.4100300000        -1.7248930000        -3.0533900000 
H       -5.2265510000        -0.4923810000        -3.5466500000 
C       -3.8280430000        -5.8253650000        -1.7528540000 
H       -4.6571000000        -5.9901910000        -1.0546460000 
H       -2.9504530000        -6.3574500000        -1.3771570000 
H       -4.1156050000        -6.2764520000        -2.7084280000 
O       -5.4469570000        -1.5928770000         0.5105480000 
O       -2.0291180000         3.6383300000         1.4307580000 
O        0.7896900000        -2.0295190000         1.5802210000 
C       -3.2187060000        -0.9848640000         1.1685670000 
C       -3.6060220000         0.3480040000         1.2541370000 
H       -4.6528260000         0.6134650000         1.1321650000 
C       -2.6559620000         1.3408090000         1.5120320000 
C       -1.3207020000         0.9881240000         1.6688020000 
H       -0.5890140000         1.7645670000         1.8760840000 
C       -0.9216590000        -0.3475030000         1.5712570000 
C       -1.8706500000        -1.3300240000         1.3194310000 
H       -1.5554770000        -2.3661980000         1.2302210000 
C       -4.2152320000        -2.0999840000         0.9906450000 
H       -3.8181220000        -2.8466960000         0.2916630000 
H       -4.3817480000        -2.5945560000         1.9599170000 
C       -6.4439350000        -2.4974550000         0.2972500000 
C       -6.3239290000        -3.8687250000         0.5376780000 
H       -5.4016810000        -4.2896820000         0.9233790000 
C       -7.3922230000        -4.7218900000         0.2517000000 
C       -8.5729320000        -4.1939070000        -0.2672850000 
H       -9.4031490000        -4.8596480000        -0.4941110000 
C       -8.7073900000        -2.8230300000        -0.4980880000 
C       -7.6369450000        -1.9818570000        -0.2105310000 
H       -7.7094940000        -0.9116820000        -0.3840710000 
C       -7.2568440000        -6.2082350000         0.4753320000 
H       -7.1598980000        -6.7416010000        -0.4771570000 
H       -8.1358330000        -6.6122830000         0.9865710000 
H       -6.3757460000        -6.4410790000         1.0798850000 
C      -10.0007140000        -2.2523620000        -1.0232470000 
H       -9.8210230000        -1.3730450000        -1.6483040000 
H      -10.6534200000        -1.9432300000        -0.1991900000 
H      -10.5463000000        -2.9898770000        -1.6180990000 
C       -3.1028000000         2.7632470000         1.7279140000 
H       -3.9726370000         3.0002670000         1.1019310000 
H       -3.3927160000         2.8971160000         2.7811280000 
C       -2.2008300000         4.9538660000         1.7314760000 
C       -1.0814790000         5.7731740000         1.5409230000 
H       -0.1622180000         5.3193440000         1.1779110000 
C       -1.1513870000         7.1332800000         1.8190520000 
C       -2.3558540000         7.6726090000         2.2887280000 
H       -2.4259510000         8.7418380000         2.4773370000 
C       -3.4703800000         6.8670310000         2.4909720000 
C       -3.3938930000         5.4995790000         2.1988380000 
H       -4.2793440000         4.8861880000         2.3253380000 
C       -4.7513480000         7.4323360000         3.0489280000 
H       -4.8605810000         7.1691430000         4.1071310000 
H       -5.6199300000         7.0316080000         2.5159240000 
H       -4.7695050000         8.5229920000         2.9660800000 
C        0.0562130000         8.0138700000         1.6398560000 
H        0.5073830000         8.2590160000         2.6098870000 
H       -0.2048700000         8.9592190000         1.1514980000 
H        0.8150340000         7.5168520000         1.0257800000 
C        0.5380420000        -0.6555290000         1.7761840000 
H        1.1487790000        -0.0599180000         1.0821040000 
H        0.8272360000        -0.3714880000         2.8002610000 
C        2.0625710000        -2.4494360000         1.8208960000 
C        3.1086190000        -1.6003120000         2.1714000000 
H        2.9570600000        -0.5296430000         2.2586260000 
C        4.3888590000        -2.1213430000         2.4017790000 
C        4.6016410000        -3.4877090000         2.2739760000 
H        5.5997590000        -3.8913050000         2.4336350000 
C        3.5570520000        -4.3507400000         1.9103220000 
C        2.2909480000        -3.8255240000         1.6864100000 
H        1.4566110000        -4.4625180000         1.4064400000 
C        5.5139640000        -1.1801350000         2.7444460000 
H        5.7740950000        -0.5798730000         1.8647490000 
H        6.4101520000        -1.7244310000         3.0534610000 
H        5.2265850000        -0.4919710000         3.5466350000 
C        3.8284490000        -5.8250870000         1.7528930000 
H        4.6575040000        -5.9898580000         1.0546720000 
H        2.9508870000        -6.3572280000         1.3772090000 
H        4.1160550000        -6.2761590000         2.7084620000 
