         160
0 1
O        1.6345570000         3.4640150000         3.8709660000 
O       -1.7283370000         4.7778420000         0.6890140000 
N        0.8481560000         4.5958600000         2.0479220000 
H        0.9998430000         4.7999910000         1.0540950000 
N       -2.3874480000         3.6450540000         2.5348680000 
C        1.7562550000         3.8458780000         2.7123890000 
C       -0.3858900000         5.0414370000         2.6692910000 
H       -0.3828290000         4.6301970000         3.6878650000 
C       -1.5627160000         4.4701630000         1.8749290000 
C       -3.5349220000         3.0150000000         1.9098850000 
H       -3.2723420000         2.7205590000         0.8868200000 
C       -4.7503820000         3.9486280000         1.8420080000 
H       -5.0892990000         4.2143100000         2.8552030000 
H       -5.5714240000         3.4586300000         1.3012450000 
H       -4.4780510000         4.8668610000         1.3030960000 
O        3.4720050000        -1.6258880000         3.8712260000 
O        4.7911580000         1.7304190000         0.6880880000 
N        4.6100810000        -0.8469990000         2.0488050000 
H        4.8145930000        -1.0010430000         1.0553950000 
N        3.6544680000         2.3847240000         2.5331770000 
C        3.8555160000        -1.7511000000         2.7135800000 
C        5.0574720000         0.3876190000         2.6678190000 
H        4.6489920000         0.3855450000         3.6875030000 
C        4.4833290000         1.5633800000         1.8738010000 
C        3.0197420000         3.5292910000         1.9075360000 
H        2.7251330000         3.2646220000         0.8850430000 
C        3.9489000000         4.7480640000         1.8375310000 
H        4.2141340000         5.0890430000         2.8501500000 
H        3.4554270000         5.5666950000         1.2962770000 
H        4.8676760000         4.4784920000         1.2981840000 
O       -3.4715130000         1.6266440000         3.8712610000 
O       -4.7913140000        -1.7304480000         0.6890770000 
N       -4.6097870000         0.8475250000         2.0490610000 
H       -4.8142220000         1.0013260000         1.0555960000 
N       -3.6537700000        -2.3836160000         2.5339940000 
C       -3.8550170000         1.7516320000         2.7135920000 
C       -5.0574010000        -0.3868910000         2.6683490000 
H       -4.6490220000        -0.3846060000         3.6880720000 
C       -4.4832520000        -1.5628800000         1.8746660000 
C       -3.0189560000        -3.5281410000         1.9083990000 
H       -2.7241530000        -3.2633760000         0.8859800000 
C       -3.9480920000        -4.7469230000         1.8381450000 
H       -4.2133750000        -5.0880630000         2.8506950000 
H       -3.4545680000        -5.5654460000         1.2967780000 
H       -4.8668300000        -4.4772660000         1.2987800000 
O       -1.6337890000        -3.4629730000         3.8718750000 
O        1.7288500000        -4.7774980000         0.6896220000 
N       -0.8475920000        -4.5949130000         2.0487620000 
H       -0.9995390000        -4.7989950000         1.0549640000 
N        2.3881630000        -3.6446860000         2.5353670000 
C       -1.7555280000        -3.8447820000         2.7132980000 
C        0.3864120000        -5.0407710000         2.6699850000 
H        0.3835500000        -4.6295240000         3.6885620000 
C        1.5633150000        -4.4697690000         1.8755390000 
C        3.5355820000        -3.0147050000         1.9101960000 
H        3.2729800000        -2.7205590000         0.8870510000 
C        4.7511160000        -3.9482440000         1.8426030000 
H        5.0900760000        -4.2135840000         2.8558740000 
H        5.5721070000        -3.4583460000         1.3016720000 
H        4.4788630000        -4.8666700000         1.3039850000 
O        1.6850310000        -3.4388070000        -3.8713880000 
O       -1.6581610000        -4.8019680000        -0.6893750000 
N        0.9147990000        -4.5819330000        -2.0485140000 
H        1.0694870000        -4.7846280000        -1.0548580000 
N       -2.3350580000        -3.6791060000        -2.5348920000 
C        1.8122430000        -3.8191530000        -2.7129050000 
C       -0.3126520000        -5.0450460000        -2.6701200000 
H       -0.3156170000        -4.6331740000        -3.6884440000 
C       -1.4976950000        -4.4916710000        -1.8753130000 
C       -3.4921120000        -3.0668440000        -1.9098990000 
H       -3.2346440000        -2.7699160000        -0.8862780000 
C       -4.6936680000        -4.0184930000        -1.8440740000 
H       -5.0276340000        -4.2882370000        -2.8578430000 
H       -5.5224860000        -3.5412250000        -1.3037620000 
H       -4.4082900000        -4.9330930000        -1.3057250000 
O        3.4486040000         1.6756560000        -3.8712510000 
O        4.8157970000        -1.6610150000        -0.6875410000 
N        4.5970660000         0.9139910000        -2.0480500000 
H        4.7988090000         1.0712350000        -1.0545610000 
N        3.6894520000        -2.3311680000        -2.5332550000 
C        3.8297790000         1.8068080000        -2.7134920000 
C        5.0633540000        -0.3138100000        -2.6666960000 
H        4.6559270000        -0.3177110000        -3.6867980000 
C        4.5060410000        -1.4980750000        -1.8733180000 
C        3.0714180000        -3.4852450000        -1.9083360000 
H        2.7736950000        -3.2257790000        -0.8854340000 
C        4.0179780000        -4.6906620000        -1.8399740000 
H        4.2878450000        -5.0266230000        -2.8530490000 
H        3.5364290000        -5.5169620000        -1.2996170000 
H        4.9329180000        -4.4085620000        -1.3005000000 
O       -3.4490350000        -1.6764080000        -3.8702620000 
O       -4.8162850000         1.6608580000        -0.6874000000 
N       -4.5977890000        -0.9147400000        -2.0472800000 
H       -4.7998630000        -1.0719780000        -1.0538680000 
N       -3.6895850000         2.3301000000        -2.5332180000 
C       -3.8304140000        -1.8075820000        -2.7125700000 
C       -5.0640100000         0.3130150000        -2.6660820000 
H       -4.6567830000         0.3166400000        -3.6862640000 
C       -4.5063970000         1.4973890000        -1.8730690000 
C       -3.0715790000         3.4843720000        -1.9086360000 
H       -2.7738290000         3.2251640000        -0.8856770000 
C       -4.0182420000         4.6897310000        -1.8405270000 
H       -4.2881700000         5.0254120000        -2.8536780000 
H       -3.5367380000         5.5162160000        -1.3004080000 
H       -4.9331330000         4.4076950000        -1.3009350000 
O       -1.6851360000         3.4376510000        -3.8716800000 
O        1.6583570000         4.8016960000        -0.6902570000 
N       -0.9151650000         4.5812810000        -2.0489860000 
H       -1.0700690000         4.7840900000        -1.0553880000 
N        2.3342440000         3.6782890000        -2.5357510000 
C       -1.8124560000         3.8182630000        -2.7133090000 
C        0.3121450000         5.0448220000        -2.6705520000 
H        0.3150590000         4.6333340000        -3.6890340000 
C        1.4973800000         4.4913070000        -1.8761130000 
C        3.4912560000         3.0659390000        -1.9107350000 
H        3.2335830000         2.7687330000        -0.8872380000 
C        4.6927390000         4.0176340000        -1.8445310000 
H        5.0268740000         4.2875050000        -2.8582100000 
H        5.5214610000         3.5403260000        -1.3041190000 
H        4.4072040000         4.9321470000        -1.3061270000 
H       -3.3928560000         2.1475320000        -3.4910950000 
H        2.1533310000         3.3803320000        -3.4935460000 
H        3.3926060000        -2.1488910000        -3.4911570000 
H       -2.1543180000        -3.3811640000        -3.4927290000 
H       -2.2019860000         3.3498810000         3.4926610000 
H       -3.3591230000        -2.1971410000         3.4917690000 
H        2.2026730000        -3.3492090000         3.4930640000 
H        3.3598330000         2.1984430000         3.4909950000 
C        6.5841790000         0.4791840000         2.7047950000 
H        6.9994340000        -0.3742660000         3.2600800000 
H        6.9867470000         0.4717040000         1.6808280000 
H        6.9073130000         1.4109530000         3.1947890000 
C        6.5912980000        -0.3826480000        -2.7020310000 
H        6.9944660000         0.4768240000        -3.2569270000 
H        6.9925730000        -0.3691500000        -1.6776210000 
H        6.9287830000        -1.3095450000        -3.1915910000 
C        0.4776820000        -6.5674930000         2.7116300000 
H       -0.3761330000        -6.9808630000         3.2677650000 
H        0.4705650000        -6.9731120000         1.6888640000 
H        1.4091250000        -6.8893320000         3.2031090000 
C       -6.5841130000        -0.4782390000         2.7051450000 
H       -6.9993290000         0.3754210000         3.2601360000 
H       -6.9865370000        -0.4709950000         1.6811210000 
H       -6.9074580000        -1.4098270000         3.1953450000 
C        0.3812360000         6.5727100000        -2.7124980000 
H       -0.4784860000         6.9735950000        -3.2686650000 
H        0.3683080000         6.9783430000        -1.6897940000 
H        1.3078930000         6.9079580000        -3.2040620000 
C       -6.5919460000         0.3820540000        -2.7010850000 
H       -6.9953730000        -0.4774620000        -3.2557240000 
H       -6.9929930000         0.3688200000        -1.6765820000 
H       -6.9294190000         1.3089070000        -3.1907360000 
C       -0.3820510000        -6.5729150000        -2.7126980000 
H        0.4775110000        -6.9737270000        -3.2691670000 
H       -0.3690440000        -6.9790000000        -1.6901730000 
H       -1.3088450000        -6.9077530000        -3.2042850000 
C       -0.4774940000         6.5681350000         2.7109180000 
H        0.3762950000         6.9817170000         3.2669390000 
H       -0.4706000000         6.9737510000         1.6881480000 
H       -1.4089460000         6.8897810000         3.2025070000 
