          80
0 1
O        1.8520040000        -3.3523270000        -1.5871640000 
O       -1.4202010000        -4.8780640000         1.5947880000 
N        1.1394300000        -4.5320470000         0.2358800000 
H        1.3038320000        -4.7260820000         1.2297070000 
N       -2.1502520000        -3.7896430000        -0.2510660000 
C        1.9978210000        -3.7256470000        -0.4285870000 
C       -0.0636700000        -5.0554610000        -0.3854890000 
H       -0.0868560000        -4.6448620000        -1.4040630000 
C       -1.2745510000        -4.5604440000         0.4088730000 
C       -3.3355920000        -3.2340930000         0.3739170000 
H       -3.0923350000        -2.9234970000         1.3969820000 
C       -4.4889990000        -4.2433770000         0.4417940000 
H       -4.8102730000        -4.5301440000        -0.5714010000 
H       -5.3396350000        -3.8067690000         0.9825570000 
H       -4.1586300000        -5.1423610000         0.9807060000 
O        3.3609200000         1.8444500000        -1.5874240000 
O        4.8915510000        -1.4208420000         1.5957140000 
N        4.5463780000         1.1397700000         0.2349970000 
H        4.7406430000         1.3065500000         1.2284070000 
N        3.7989290000        -2.1463450000        -0.2493750000 
C        3.7356600000         1.9938790000        -0.4297780000 
C        5.0716390000        -0.0637840000        -0.3840170000 
H        4.6638590000        -0.0877800000        -1.4037010000 
C        4.5736900000        -1.2737860000         0.4100010000 
C        3.2385310000        -3.3290820000         0.3762660000 
H        2.9276340000        -3.0837510000         1.3987590000 
C        4.2435660000        -4.4860810000         0.4462710000 
H        4.5300180000        -4.8094410000        -0.5663480000 
H        3.8033360000        -5.3345330000         0.9875250000 
H        5.1432680000        -4.1584310000         0.9856180000 
O       -3.3609020000        -1.8445200000        -1.5874590000 
O       -4.8922310000         1.4215140000         1.5947250000 
N       -4.5465730000        -1.1396230000         0.2347410000 
H       -4.7407770000        -1.3061550000         1.2282060000 
N       -3.7986840000         2.1459370000        -0.2501920000 
C       -3.7356500000        -1.9937260000        -0.4297900000 
C       -5.0720430000         0.0637160000        -0.3845470000 
H       -4.6643510000         0.0874940000        -1.4042700000 
C       -4.5741040000         1.2739440000         0.4091360000 
C       -3.2381960000         3.3286370000         0.3754030000 
H       -2.9270990000         3.0832230000         1.3978220000 
C       -4.2432090000         4.4856470000         0.4456570000 
H       -4.5297200000         4.8091640000        -0.5668930000 
H       -3.8029210000         5.3339940000         0.9870240000 
H       -5.1428680000         4.1579140000         0.9850220000 
O       -1.8516930000         3.3519890000        -1.5880730000 
O        1.4202130000         4.8784060000         1.5941800000 
N       -1.1393280000         4.5317910000         0.2350400000 
H       -1.3039870000         4.7257610000         1.2288380000 
N        2.1504670000         3.7899740000        -0.2515650000 
C       -1.9975480000         3.7252520000        -0.4294960000 
C        0.0637110000         5.0554820000        -0.3861830000 
H        0.0870960000         4.6448900000        -1.4047600000 
C        1.2746510000         4.5607410000         0.4082630000 
C        3.3357470000         3.2344930000         0.3736060000 
H        3.0924500000         2.9241900000         1.3967510000 
C        4.4892340000         4.2436930000         0.4411990000 
H        4.8105720000         4.5301220000        -0.5720720000 
H        5.3398130000         3.8071820000         0.9821300000 
H        4.1589310000         5.1428750000         0.9798170000 
H       -1.9840030000        -3.4832370000        -1.2088590000 
H       -3.4927380000         1.9786430000        -1.2079670000 
H        1.9842090000         3.4832630000        -1.2092620000 
H        3.4930080000        -1.9792440000        -1.2071930000 
C        6.6010770000        -0.0577430000        -0.4209930000 
H        6.9610270000         0.8204640000        -0.9762780000 
H        7.0023470000        -0.0245910000         0.6029740000 
H        6.9830090000        -0.9669940000        -0.9109870000 
C        0.0573740000         6.5849160000        -0.4278280000 
H       -0.8210770000         6.9429620000        -0.9839630000 
H        0.0243900000         6.9892540000         0.5949380000 
H        0.9663830000         6.9655350000        -0.9193070000 
C       -6.6014720000         0.0574570000        -0.4213430000 
H       -6.9613700000        -0.8209570000        -0.9763340000 
H       -7.0026140000         0.0245500000         0.6026810000 
H       -6.9836040000         0.9665140000        -0.9115430000 
C       -0.0576680000        -6.5848920000        -0.4271160000 
H        0.8207710000        -6.9431500000        -0.9831370000 
H       -0.0249060000        -6.9892420000         0.5956540000 
H       -0.9666970000        -6.9653190000        -0.9187050000 
