         174
0 1
C       -1.3027840000         0.5203180000         0.1421650000 
H       -2.3195180000         0.9267020000         0.1112020000 
C       -1.0971030000        -0.8589760000         0.1444830000 
C       -2.2395880000        -1.8301490000         0.1721620000 
O       -2.2992540000        -2.7834410000        -0.5937140000 
N       -3.1694810000        -1.6219760000         1.1292390000 
H       -2.9771140000        -0.9084040000         1.8236290000 
C       -4.0795850000        -2.6827870000         1.4885420000 
H       -4.4523270000        -3.1335080000         0.5529410000 
C       -5.2429580000        -2.1540380000         2.3237470000 
H       -5.8100430000        -3.0056300000         2.7211920000 
H       -4.8515470000        -1.6152540000         3.2016290000 
C       -6.1532300000        -1.2327580000         1.5271140000 
H       -5.5756840000        -0.4870940000         0.9528960000 
H       -6.7351870000        -1.7914060000         0.7771480000 
C       -7.1172540000        -0.4941810000         2.4194370000 
O       -7.0772320000        -0.4661730000         3.6188630000 
O       -8.0495230000         0.1608410000         1.7102300000 
C       -8.9792130000         0.9219110000         2.4678210000 
H       -9.6581360000         1.3862480000         1.7461040000 
H       -8.4595360000         1.6902360000         3.0556020000 
H       -9.5356910000         0.2731300000         3.1571990000 
C       -3.2974070000        -3.7875790000         2.2133710000 
O       -2.1044220000        -3.8022470000         2.3372470000 
O       -4.1114130000        -4.7262190000         2.6879250000 
C       -3.4769470000        -5.8463500000         3.2999570000 
H       -4.2834660000        -6.5049860000         3.6358960000 
H       -2.8694950000        -5.5144640000         4.1520190000 
H       -2.8443680000        -6.3535320000         2.5627580000 
C       -0.1967390000         1.3796410000         0.1445160000 
C        1.1005780000         0.8680950000         0.1411420000 
C       -0.4664690000         2.8546380000         0.1726050000 
H        1.9609080000         1.5453730000         0.1093480000 
C        1.2917360000        -0.5194210000         0.1438250000 
O       -1.2630160000         3.3830870000        -0.5923350000 
N        0.1799620000         3.5557840000         1.1289510000 
C        0.2000770000        -1.3872070000         0.1412770000 
C        2.7040450000        -1.0231770000         0.1710700000 
H        0.7026700000         3.0324400000         1.8226690000 
C       -0.2822860000         4.8748500000         1.4882620000 
H        0.3565320000        -2.4709060000         0.1097590000 
O        3.5592260000        -0.5980490000        -0.5949590000 
N        2.9892290000        -1.9324500000         1.1281490000 
H       -0.4846650000         5.4240350000         0.5529360000 
C        0.7579330000         5.6157780000         2.3247990000 
C       -1.6305470000         4.7517010000         2.2126060000 
H        2.2753150000        -2.1231440000         1.8226410000 
C        4.3632120000        -2.1902010000         1.4866730000 
H        0.3055980000         6.5338250000         2.7214480000 
H        1.0261920000         5.0068700000         3.2031160000 
C        2.0128330000         5.9401790000         1.5298230000 
O       -2.2393300000         3.7261170000         2.3402080000 
O       -2.0367590000         5.9274810000         2.6832050000 
H        4.9394130000        -2.2885310000         0.5508530000 
C        4.4870520000        -3.4615940000         2.3227020000 
C        4.9298000000        -0.9601000000         2.2102750000 
H        2.3679510000         5.0663180000         0.9557790000 
H        1.8231000000         6.7242950000         0.7799300000 
C        3.1347650000         6.4021740000         2.4236110000 
C       -3.3228180000         5.9393440000         3.2977370000 
H        5.5082220000        -3.5269200000         2.7198110000 
H        3.8250470000        -3.3913550000         3.2007520000 
C        4.1436920000        -4.7110220000         1.5269740000 
O        4.3457010000         0.0800150000         2.3358220000 
O        6.1509430000        -1.1950790000         2.6819500000 
O        3.1370550000         6.3538710000         3.6230580000 
O        4.1709530000         6.8779840000         1.7157620000 
H       -3.4905970000         6.9684990000         3.6291320000 
H       -3.3364760000         5.2513580000         4.1531080000 
H       -4.0795190000         5.6407150000         2.5635800000 
H        3.2089070000        -4.5838560000         0.9531160000 
H        4.9181160000        -4.9363020000         0.7768250000 
C        3.9862060000        -5.9145830000         2.4200730000 
C        6.8041060000        -0.0857120000         3.2939260000 
C        5.2953090000         7.2988820000         2.4748440000 
O        3.9426200000        -5.8931690000         3.6195080000 
O        3.8847910000        -7.0499080000         1.7116040000 
H        7.7779640000        -0.4549610000         3.6291680000 
H        6.2134120000         0.2741570000         4.1463990000 
H        6.9267580000         0.7158860000         2.5568820000 
H        6.0393300000         7.6514490000         1.7540520000 
H        5.6968510000         6.4635480000         3.0637830000 
H        5.0136460000         8.1067090000         3.1632530000 
C        3.6910150000        -8.2351780000         2.4699750000 
H        3.6283840000        -9.0557550000         1.7487590000 
H        2.7659230000        -8.1692040000         3.0579640000 
H        4.5313350000        -8.3921310000         3.1592160000 
H       -1.0610510000        -3.1201310000        -1.9430600000 
H       -2.1727950000         2.4779710000        -1.9427790000 
H        3.2316560000         0.6420790000        -1.9450840000 
N       -0.3596980000        -3.5792700000        -2.5296920000 
N       -2.9211530000         2.1005650000        -2.5295720000 
N        3.2784570000         1.4791620000        -2.5315390000 
C        0.5627680000        -2.8361500000        -3.1938150000 
C       -0.0751790000        -4.9658080000        -2.2582390000 
C       -2.7391720000         0.9301680000        -3.1938140000 
C       -4.2640220000         2.5482860000        -2.2584450000 
C        2.1732980000         1.9066940000        -3.1948570000 
C        4.3373160000         2.4185300000        -2.2603310000 
C        0.2399550000        -1.3743540000        -3.2985560000 
O        1.5967440000        -3.3135270000        -3.6257230000 
C        1.3102190000        -0.4772410000        -3.3086900000 
C       -1.0701480000        -0.8968010000        -3.3079140000 
H        2.3244090000        -0.8825280000        -3.3014700000 
C        1.0687540000         0.8961740000        -3.2990920000 
H       -1.9282060000        -1.5724940000        -3.3000440000 
C       -1.3119100000         0.4786570000        -3.2985170000 
C       -0.2432590000         1.3744620000        -3.3084090000 
H       -0.3994290000         2.4554120000        -3.3010130000 
O        2.0692390000         3.0410330000        -3.6260870000 
O       -3.6696460000         0.2736160000        -3.6259170000 
H       -0.0410360000        -5.5391270000        -3.1976150000 
C       -1.1213640000        -5.5360040000        -1.2985220000 
C        1.2975550000        -5.0957510000        -1.6072600000 
H       -0.8651410000        -6.5793830000        -1.0643180000 
H       -1.0730510000        -4.9738220000        -0.3530670000 
C       -2.5385300000        -5.4553670000        -1.8515930000 
O        1.6867220000        -4.3909290000        -0.7087970000 
O        1.9801050000        -6.1190450000        -2.0990250000 
H       -2.7595320000        -4.4711570000        -2.2825330000 
H       -2.7047910000        -6.1951100000        -2.6522160000 
C       -3.5572790000        -5.7159730000        -0.7746650000 
C        3.2957490000        -6.3011060000        -1.5952880000 
O       -3.3291530000        -6.2425430000         0.2840180000 
O       -4.7830110000        -5.3154050000        -1.1303530000 
H        3.7444870000        -7.0981960000        -2.1960620000 
H        3.2750190000        -6.5892620000        -0.5356920000 
H        3.8684090000        -5.3703230000        -1.7100610000 
C       -5.8239050000        -5.6140190000        -0.2103760000 
H       -6.7343020000        -5.1657070000        -0.6208580000 
H       -5.5949260000        -5.2040760000         0.7831170000 
H       -5.9486000000        -6.7018490000        -0.1135460000 
H       -4.7772510000         2.8055490000        -3.1979640000 
C       -4.2340860000         3.7395240000        -1.2989610000 
C       -5.0637750000         1.4250480000        -1.6075050000 
H       -5.2655870000         4.0395470000        -1.0642090000 
H       -3.7708230000         3.4165730000        -0.3537830000 
C       -3.4559500000         4.9263230000        -1.8527710000 
O       -4.6486580000         0.7354960000        -0.7088030000 
O       -6.2909430000         1.3458780000        -2.1000370000 
H       -2.4928940000         4.6256400000        -2.2832290000 
H       -4.0135010000         5.4393100000        -2.6539290000 
C       -3.1728720000         5.9398430000        -0.7765630000 
C       -7.1069760000         0.2976750000        -1.5968660000 
O       -3.7433440000         6.0062570000         0.2818700000 
O       -2.2127600000         6.8006060000        -1.1323860000 
H       -8.0215690000         0.3082900000        -2.1977410000 
H       -7.3461740000         0.4593360000        -0.5372230000 
H       -6.5876160000        -0.6638210000        -1.7120520000 
C       -1.9507680000         7.8516190000        -0.2127360000 
H       -1.1078080000         8.4161270000        -0.6238880000 
H       -1.7093740000         7.4485540000         0.7806270000 
H       -2.8306810000         8.5032080000        -0.1154260000 
H        4.8162430000         2.7350890000        -3.1998540000 
C        5.3545980000         1.7967260000        -1.3015370000 
C        3.7644670000         3.6722460000        -1.6082700000 
H        6.1305850000         2.5397370000        -1.0672490000 
H        4.8437560000         1.5572030000        -0.3560400000 
C        5.9925430000         0.5291480000        -1.8556620000 
O        2.9597970000         3.6568850000        -0.7095250000 
O        4.3100390000         4.7749480000        -2.0994860000 
H        5.2501730000        -0.1542450000        -2.2857910000 
H        6.7153640000         0.7553370000        -2.6570700000 
C        6.7289140000        -0.2229010000        -0.7797160000 
C        3.8115450000         6.0054100000        -1.5942310000 
O        7.0740350000         0.2385540000         0.2776740000 
O        6.9913440000        -1.4857420000        -1.1343060000 
H        4.2787910000         6.7927130000        -2.1937990000 
H        4.0713620000         6.1296690000        -0.5343910000 
H        2.7192190000         6.0377680000        -1.7092500000 
C        7.7714000000        -2.2380510000        -0.2152900000 
H        7.8371420000        -3.2507690000        -0.6256320000 
H        7.3032070000        -2.2442080000         0.7788470000 
H        8.7761790000        -1.8026390000        -0.1199580000 
