          87
0 1
C        1.2668040000         0.6042880000         1.6214650000 
H        2.2549470000         1.0759540000         1.6524280000 
C        1.1512880000        -0.7854650000         1.6191470000 
C        2.3545330000        -1.6802570000         1.5914680000 
O        2.4760880000        -2.6276480000         2.3573440000 
N        3.2689130000        -1.4120310000         0.6343910000 
H        3.0305330000        -0.7124850000        -0.0599990000 
C        4.2461000000        -2.4113890000         0.2750880000 
H        4.6473740000        -2.8369060000         1.2106890000 
C        5.3726110000        -1.8080770000        -0.5601170000 
H        5.9938950000        -2.6209730000        -0.9575620000 
H        4.9469790000        -1.2958970000        -1.4379990000 
C        6.2210210000        -0.8295310000         0.2365160000 
H        5.5961900000        -0.1230190000         0.8107340000 
H        6.8380880000        -1.3491360000         0.9864820000 
C        7.1349550000        -0.0298030000        -0.6558070000 
O        7.0931960000        -0.0044580000        -1.8552330000 
O        8.0226370000         0.6844800000         0.0534000000 
C        8.9008470000         1.5044180000        -0.7041910000 
H        9.5481240000         2.0119380000         0.0175260000 
H        8.3322880000         2.2373080000        -1.2919720000 
H        9.4983520000         0.8932130000        -1.3935690000 
C        3.5374510000        -3.5647250000        -0.4497410000 
O        2.3479470000        -3.6569710000        -0.5736170000 
O        4.4107950000        -4.4484210000        -0.9242950000 
C        3.8505430000        -5.6074550000        -1.5363270000 
H        4.6982010000        -6.2122280000        -1.8722660000 
H        3.2227870000        -5.3157890000        -2.3883890000 
H        3.2522980000        -6.1547140000        -0.7991280000 
C        0.1071990000         1.3898370000         1.6191140000 
C       -1.1540910000         0.7949780000         1.6224880000 
C        0.2804030000         2.8792570000         1.5910250000 
H       -2.0566590000         1.4148530000         1.6542820000 
C       -1.2545800000        -0.6020340000         1.6198050000 
O        1.0408840000         3.4584050000         2.3559650000 
N       -0.4102720000         3.5368640000         0.6346790000 
C       -0.1087800000        -1.3969650000         1.6223530000 
C       -2.6311260000        -1.1966000000         1.5925600000 
H       -0.8978270000         2.9806240000        -0.0590390000 
C       -0.0348140000         4.8832070000         0.2753680000 
H       -0.1944040000        -2.4885460000         1.6538710000 
O       -3.5121520000        -0.8280060000         2.3585890000 
N       -2.8565530000        -2.1225000000         0.6354810000 
H        0.1314090000         5.4443950000         1.2106940000 
C       -1.1210310000         5.5548950000        -0.5611690000 
C        1.3186020000         4.8480300000        -0.4489760000 
H       -2.1317460000        -2.2663470000        -0.0590110000 
C       -4.2108580000        -2.4690890000         0.2769570000 
H       -0.7293770000         6.5004240000        -0.9578180000 
H       -1.3491090000         4.9298250000        -1.4394860000 
C       -2.3943760000         5.7969720000         0.2338070000 
O        1.9928140000         3.8642220000        -0.5765780000 
O        1.6474640000         6.0477450000        -0.9195750000 
H       -4.7794410000        -2.6046950000         1.2127770000 
C       -4.2517250000        -3.7458450000        -0.5590720000 
C       -4.8562690000        -1.2784530000        -0.4466450000 
H       -2.6918930000         4.9018600000         0.8078510000 
H       -2.2560550000         6.5917700000         0.9837000000 
C       -3.5439860000         6.1850010000        -0.6599810000 
C        2.9300270000         6.1432470000        -1.5341070000 
H       -5.2664830000        -3.8774640000        -0.9561810000 
H       -3.5956920000        -3.6326880000        -1.4371220000 
C       -3.8278120000        -4.9702890000         0.2366560000 
O       -4.3410720000        -0.2025430000        -0.5721920000 
O       -6.0595390000        -1.5923750000        -0.9183200000 
O       -3.5431290000         6.1366520000        -1.8594280000 
O       -4.6089340000         6.5923940000         0.0478680000 
H        3.0304980000         7.1811370000        -1.8655020000 
H        2.9884120000         5.4576070000        -2.3894780000 
H        3.7045520000         5.8944780000        -0.7999500000 
H       -2.9032800000        -4.7825800000         0.8105140000 
H       -4.5859400000        -5.2454720000         0.9868050000 
C       -3.5923620000        -6.1610550000        -0.6564430000 
C       -6.7834880000        -0.5278490000        -1.5302960000 
C       -5.7582900000         6.9392560000        -0.7112140000 
O       -3.5502620000        -6.1368510000        -1.8558780000 
O       -3.4173030000        -7.2873780000         0.0520260000 
H       -7.7312620000        -0.9596710000        -1.8655380000 
H       -6.2174560000        -0.1303150000        -2.3827690000 
H       -6.9580280000         0.2640720000        -0.7932520000 
H       -6.5236710000         7.2426740000         0.0095780000 
H       -6.1046380000         6.0795700000        -1.3001530000 
H       -5.5297760000         7.7636960000        -1.3996230000 
C       -3.1468300000        -8.4575310000        -0.7063450000 
H       -3.0309490000        -9.2722950000         0.0148710000 
H       -2.2279900000        -8.3315150000        -1.2943340000 
H       -3.9751590000        -8.6688180000        -1.3955860000 
